O  Si Ru C  H                           
   1.00000000000000     
    20.3096463179830877    0.0000000000000000    0.0000000000000000
     0.0000000000000000   19.8625212307842212    0.0000000000000000
     0.0000000000000000    0.0000000000000000   13.3711533343531652
   O    Si   Ru   C    H 
   192    96     2     2     6
Selective dynamics
Direct
  0.5028158134777527  0.0739228355310502  0.7073228629623927   F   F   F
  0.9977622630903014  0.5720735843336229  0.2088684274509305   F   F   F
  0.5031527590984481  0.4263868783715949  0.7072899922179303   F   F   F
  0.9977801789707428  0.9277039277260215  0.2085496091753853   F   F   F
  0.4982631025724160  0.9290531698725175  0.2925750422324214   F   F   F
  0.0031591959460044  0.4269066746046946  0.7920646007062402   F   F   F
  0.4975890732151598  0.5719396755477391  0.2910767740295910   F   F   F
  0.0033074863765208  0.0730297670694426  0.7916931660760795   F   F   F
  0.3878444496737643  0.0670411476067372  0.7966523081315984   F   F   F
  0.1132639691176607  0.5682004561576406  0.2967491487199325   F   F   F
  0.3878164942900924  0.4329350285760327  0.7967374562522309   F   F   F
  0.1131253302092858  0.9319523033227952  0.2964461528445952   F   F   F
  0.6139441792064346  0.9330168421000593  0.2043745968870638   F   F   F
  0.8876969217241779  0.4326678777201423  0.7036348812930129   F   F   F
  0.6141933476121153  0.5678398040592540  0.2035632753386807   F   F   F
  0.8877782067889157  0.0675391725586323  0.7036827318025303   F   F   F
  0.4008729871370349  0.1390630954915011  0.6321659283336913   F   F   F
  0.0972621216527969  0.6392579938591609  0.1316611715599620   F   F   F
  0.4008921002964385  0.3609259692232527  0.6316302319876570   F   F   F
  0.0977658716248797  0.8607525513898793  0.1316313622031728   F   F   F
  0.6005513468162960  0.8629437034758922  0.3723096050768504   F   F   F
  0.9018783357311690  0.3608849096377469  0.8688403630412864   F   F   F
  0.5987195670762020  0.6370703708028671  0.3704316553989813   F   F   F
  0.9020477555736122  0.1390893405089884  0.8686870020617121   F   F   F
  0.4058301098660735  0.0048269638322722  0.6216351387000500   F   F   F
  0.0950983674083403  0.5050671545430063  0.1231173236600540   F   F   F
  0.4059176798224442  0.4955325840192160  0.6221091872146829   F   F   F
  0.0949976727173052  0.9949787496114055  0.1228615939335569   F   F   F
  0.5946778290764172  0.9965355529005038  0.3746306090899196   F   F   F
  0.9064295961147195  0.4952330135795577  0.8778130148267351   F   F   F
  0.5948518764689368  0.5043167296883269  0.3761803046039063   F   F   F
  0.9064337776606024  0.0045868588854745  0.8776634491481090   F   F   F
  0.3239471741015549  0.0381936111639476  0.9640728985750968   F   F   F
  0.1761179661918604  0.5378680501442332  0.4643678762609156   F   F   F
  0.3240955062153432  0.4617482221410967  0.9639883001826419   F   F   F
  0.1761362894469727  0.9619358364719872  0.4644119671490330   F   F   F
  0.6770103393279641  0.9623488699426943  0.0347931258063738   F   F   F
  0.8240358671991430  0.4615309795515543  0.5362961574556451   F   F   F
  0.6768326526827835  0.5377009232895631  0.0361954154486597   F   F   F
  0.8238855444236606  0.0383993879540014  0.5353551910653067   F   F   F
  0.3217309226113443  0.9529006355095504  0.8074236764959508   F   F   F
  0.1774810102618574  0.4536294769091072  0.3069515398868106   F   F   F
  0.3217136355035422  0.5468580390823732  0.8075204227903043   F   F   F
  0.1776261155361922  0.0463050201221620  0.3071031733596286   F   F   F
  0.6785482688362166  0.0468127856897311  0.1934175507178750   F   F   F
  0.8215025043092012  0.5461090988056938  0.6933152041304851   F   F   F
  0.6785703390299247  0.4531739916335482  0.1936276429906627   F   F   F
  0.8215338309952074  0.9541482295380561  0.6934128216812567   F   F   F
  0.2561974838992214  0.0683869148385128  0.8016265988438604   F   F   F
  0.2443695776466512  0.5671608791748710  0.3039918368425276   F   F   F
  0.2561678537354055  0.4315038530693158  0.8017842757778197   F   F   F
  0.2445504669778344  0.9328161809012272  0.3037161052496060   F   F   F
  0.7455171075803264  0.9319867125853776  0.1980974381111267   F   F   F
  0.7564202306157952  0.4314025508795822  0.6983008776794364   F   F   F
  0.7453366266650221  0.5677631490799300  0.1975853261168012   F   F   F
  0.7562759846635458  0.0686088128167128  0.6981577992339680   F   F   F
  0.2922717124613712  0.1259230929007344  0.1041510020087628   F   F   F
  0.2087536517289266  0.6259386834721141  0.6040462718108159   F   F   F
  0.2923953664901120  0.3737913220231306  0.1044975416502680   F   F   F
  0.2088364906616746  0.8739147746391893  0.6045931408259335   F   F   F
  0.7090325940048388  0.8741346965102608  0.8965852266152012   F   F   F
  0.7921851151516606  0.3739934277384549  0.3954238081059458   F   F   F
  0.7087566476770277  0.6262323308215443  0.8962264290172257   F   F   F
  0.7919255674072403  0.1257543401034980  0.3956191898184116   F   F   F
  0.2007754539582649  0.0429993154993014  0.0292968137962291   F   F   F
  0.2992633176142974  0.5426002655382760  0.5291394712703692   F   F   F
  0.2007386623395888  0.4570030964359333  0.0293990947521365   F   F   F
  0.2991924823962222  0.9576708809440575  0.5290711850607863   F   F   F
  0.7999476521596876  0.9578283049390066  0.9699737945528852   F   F   F
  0.7010971197597158  0.4570447787837892  0.4706481992210669   F   F   F
  0.7997633861045728  0.5420395195330840  0.9704425813155595   F   F   F
  0.7005378197118830  0.0427183371644517  0.4704776268167663   F   F   F
  0.2961237872644347  0.9964210693248319  0.1469703030618561   F   F   F
  0.2041594449162858  0.4970720625107035  0.6468089228304805   F   F   F
  0.2962269051015838  0.5034736473476968  0.1471459078159398   F   F   F
  0.2041689072507396  0.0031563320766494  0.6468686545268127   F   F   F
  0.7036914259841964  0.0031423132622095  0.8524757367660811   F   F   F
  0.7966448137820805  0.5036596997457181  0.3540480156190142   F   F   F
  0.7037680337005696  0.4968029889555226  0.8526225423609404   F   F   F
  0.7967614754718824  0.9966689138297014  0.3542619861479821   F   F   F
  0.1092476989761764  0.1272160997905516  0.0963835843882634   F   F   F
  0.3893710391957299  0.6270423024919083  0.6003182920766434   F   F   F
  0.1094602920929830  0.3725990723396322  0.0969018883481638   F   F   F
  0.3896519746282365  0.8739193096948128  0.6023792076573358   F   F   F
  0.8910108505320338  0.8728294595883455  0.9026976086444591   F   F   F
  0.6093893703081648  0.3720582549274809  0.4039422567824218   F   F   F
  0.8905763654625929  0.6272625053516592  0.9027060651492818   F   F   F
  0.6097332672943097  0.1278151733073756  0.4046773331656865   F   F   F
  0.0830118169321565  0.0475219108621516  0.9435602027190981   F   F   F
  0.4178169520428838  0.5495575621887525  0.4444864486829516   F   F   F
  0.0830670771515969  0.4523460652188405  0.9440578141821234   F   F   F
  0.4176679744978529  0.9506796999195828  0.4449610000273410   F   F   F
  0.9175252272190022  0.9513842776752170  0.0565125250525043   F   F   F
  0.5828696487335705  0.4528989638348833  0.5559294133864157   F   F   F
  0.9174587599400894  0.5487047095600062  0.0569500475432321   F   F   F
  0.5829898657394992  0.0469235114027953  0.5547896056212522   F   F   F
  0.1295309417721597  0.0800288868786296  0.7636486217107858   F   F   F
  0.3710057830831133  0.5802062529548735  0.2621705802129668   F   F   F
  0.1296031057157165  0.4199182764638607  0.7638792510327050   F   F   F
  0.3708737231573025  0.9199116224224326  0.2613431948177833   F   F   F
  0.8716250431896384  0.9195190577008816  0.2367884702646847   F   F   F
  0.6294128062782889  0.4205519068149854  0.7359552587565972   F   F   F
  0.8713754980106785  0.5804484630408240  0.2376118872845012   F   F   F
  0.6290871740593289  0.0794770839022760  0.7353329261331396   F   F   F
  0.0748579585886233  0.9607566169989568  0.7919080418233548   F   F   F
  0.4242358391272063  0.4613998605091609  0.2951450169633461   F   F   F
  0.0748750853438125  0.5391607059952719  0.7922939540827301   F   F   F
  0.4244189309974118  0.0390920226532074  0.2947653811366919   F   F   F
  0.9247079502830928  0.0392281518820923  0.2067189668345009   F   F   F
  0.5729436402414052  0.5391315346784822  0.7083350290838126   F   F   F
  0.9246156548969324  0.4606387713800189  0.2067716800356294   F   F   F
  0.5727344398476504  0.9611396899328568  0.7089887780945645   F   F   F
  0.2161845102923863  0.1372949119636004  0.6465819767992826   F   F   F
  0.2824216887480731  0.6372906299339434  0.1482611064033819   F   F   F
  0.2161913164683043  0.3625347928829541  0.6463441500577431   F   F   F
  0.2822908482779098  0.8625922448636842  0.1470607202837897   F   F   F
  0.7843320984061322  0.8623424838919576  0.3528126364639590   F   F   F
  0.7152599921664731  0.3625478864047267  0.8540105512855050   F   F   F
  0.7840057692235760  0.6376558828832941  0.3530117172865275   F   F   F
  0.7151284642742652  0.1377374213965297  0.8538462542621019   F   F   F
  0.4973563565658168  0.8514532235721575  0.7155387953234751   F   F   F
  0.0035305223414142  0.3546049677266723  0.2133470890345635   F   F   F
  0.4965542370848013  0.6476123284605890  0.7159243520925074   F   F   F
  0.0033108801510906  0.1454619923908211  0.2132460734276336   F   F   F
  0.5043168912043114  0.1446893397877460  0.2866474570211324   F   F   F
  0.9967373116091807  0.6460248202790169  0.7863723048868394   F   F   F
  0.5038510255679185  0.3556015365568541  0.2865259211061826   F   F   F
  0.9977238875530219  0.8533834898255392  0.7866353549644174   F   F   F
  0.3800883449403187  0.8341426363042004  0.7928436927381455   F   F   F
  0.1210185792010776  0.3337957030678282  0.2873611480334901   F   F   F
  0.3793241454649419  0.6660405142515344  0.7914983902668240   F   F   F
  0.1208998099988747  0.1660429829475305  0.2869680007531699   F   F   F
  0.6209472599603387  0.1657558595081525  0.2136189503265982   F   F   F
  0.8794990303492085  0.6652847210939186  0.7114782465490492   F   F   F
  0.6210589338084134  0.3341882901785596  0.2133423632736111   F   F   F
  0.8808961976049474  0.8348635927948322  0.7116372298730838   F   F   F
  0.4216331523630501  0.7497512039497920  0.6507837967342738   F   F   F
  0.0745578693480056  0.2498659987152507  0.1492601710608881   F   F   F
  0.5736535977224761  0.2494007237287832  0.3499048701182943   F   F   F
  0.9245837264693506  0.7497279847963512  0.8498253654456960   F   F   F
  0.3158628164784787  0.8658921093068557  0.9564943925884251   F   F   F
  0.1830645867943090  0.3656883872688752  0.4547125505760690   F   F   F
  0.3153924373968238  0.6341391536785466  0.9570818287130294   F   F   F
  0.1830364472176171  0.1344710929464696  0.4546078467257502   F   F   F
  0.6830473917135365  0.1343592407864591  0.0457142058432183   F   F   F
  0.8175899120757180  0.6336470865943724  0.5449602464763430   F   F   F
  0.6831599199643534  0.3654270955977665  0.0453841153794770   F   F   F
  0.8180646324657630  0.8660835368481514  0.5447347925596446   F   F   F
  0.2499238797655110  0.8425858510864401  0.7885739946067289   F   F   F
  0.2510895828308861  0.3440557427199948  0.2891488850634545   F   F   F
  0.2485704800707893  0.6567080249388013  0.7887919562618819   F   F   F
  0.2510565277142689  0.1560496935759730  0.2889820225017772   F   F   F
  0.7514684385996730  0.1565657221368468  0.2107747999918885   F   F   F
  0.7494498300009340  0.6565254203553650  0.7112899467191482   F   F   F
  0.7516800476524281  0.3433795805026918  0.2110780125061567   F   F   F
  0.7503117582962631  0.8427597267639229  0.7119330114117304   F   F   F
  0.2953038459177719  0.7496240482189691  0.0488041284797944   F   F   F
  0.2036717338884841  0.2500625919637613  0.5473656492511907   F   F   F
  0.7036021625975621  0.2499292127822272  0.9524213883444332   F   F   F
  0.7956785500613819  0.7494420108177309  0.4539667868533570   F   F   F
  0.1953026229010888  0.8310847900101592  0.0068462155885243   F   F   F
  0.3038330882729454  0.3321230798532468  0.5063760473681498   F   F   F
  0.1950567201496867  0.6687070750068500  0.0075786027149718   F   F   F
  0.3040074888692317  0.1680009169896266  0.5061683681357465   F   F   F
  0.8038862521117238  0.1675798167077858  0.9921145880935498   F   F   F
  0.6962473786451326  0.6656849010240862  0.4951120284897783   F   F   F
  0.8038525951177675  0.3323437823169044  0.9924393887961855   F   F   F
  0.6967197741198490  0.8342893400584757  0.4957017070760514   F   F   F
  0.0910767279761302  0.7501683977893805  0.0218533575435487   F   F   F
  0.4071089146989877  0.2498391814912537  0.5235368702648557   F   F   F
  0.9068676510219262  0.2498207825667293  0.9771846870405696   F   F   F
  0.5955448128725607  0.7517528274185494  0.4826031477355670   F   F   F
  0.0811469927368407  0.8701159672780250  0.9362824398415839   F   F   F
  0.4197103555654991  0.3691876873313049  0.4361863244051349   F   F   F
  0.0808970347992215  0.6304197913833463  0.9359783560577171   F   F   F
  0.4197131087025241  0.1308292263243587  0.4359359057739596   F   F   F
  0.9188345474774522  0.1307256632980014  0.0643877070582590   F   F   F
  0.5802631501370428  0.6306339502464198  0.5656882822311573   F   F   F
  0.9189573424607431  0.3691363138403574  0.0642985020035951   F   F   F
  0.5811602597170094  0.8701600020879496  0.5645147098709771   F   F   F
  0.1233324882064508  0.8404601334237753  0.7495888982001588   F   F   F
  0.3784426401283767  0.3407752717675550  0.2499257652240416   F   F   F
  0.1226028810627895  0.6596526739406912  0.7482318309774882   F   F   F
  0.3784827402287902  0.1592521152816389  0.2500158705133728   F   F   F
  0.8780110506556653  0.1598260969296064  0.2514464646679428   F   F   F
  0.6223977342229716  0.6589897530250397  0.7522383047047398   F   F   F
  0.8780720939276634  0.3399583121931045  0.2513839413943586   F   F   F
  0.6231935900652488  0.8412348222772295  0.7512996872231597   F   F   F
  0.2011987698896718  0.7497616113823895  0.6669117553754589   F   F   F
  0.2995785243856020  0.2499530251587103  0.1677279662192390   F   F   F
  0.7992691118327926  0.2497800679902866  0.3333237835245200   F   F   F
  0.7008339495039806  0.7494825139720405  0.8334119380702845   F   F   F
  0.4240965980591014  0.0706620942676466  0.6884940016613257   F   F   F
  0.0755654003754884  0.5703557004691433  0.1887081719853043   F   F   F
  0.4242424564028653  0.4294151325008642  0.6885324278214995   F   F   F
  0.0759250027166942  0.9295664189502801  0.1889488572173548   F   F   F
  0.5756253157890754  0.9306576596421365  0.3105256248856065   F   F   F
  0.9246973561828327  0.4295877236505490  0.8117548753667805   F   F   F
  0.5767874935115813  0.5715000888854576  0.3129114356412686   F   F   F
  0.9246579311212528  0.0704233205494660  0.8112130237763964   F   F   F
  0.3225405107086914  0.0321703436446938  0.8434635294691688   F   F   F
  0.1777837780858960  0.5314406205827709  0.3432981031441571   F   F   F
  0.3224897482372953  0.4680639656525898  0.8433615108019765   F   F   F
  0.1781380081219481  0.9684727709434782  0.3432864946826442   F   F   F
  0.6782032622242440  0.9680149622979570  0.1578232805103994   F   F   F
  0.8222755676052032  0.4680038667974884  0.6575286897694852   F   F   F
  0.6787182435759860  0.5318148437753862  0.1568610909905885   F   F   F
  0.8222065165488601  0.0316708574536335  0.6577815840804959   F   F   F
  0.2779998322442125  0.0511868791828292  0.0612718074450243   F   F   F
  0.2227371422066824  0.5506656473168974  0.5618772411479682   F   F   F
  0.2778660407351197  0.4483398282731414  0.0608231881549699   F   F   F
  0.2228654046458729  0.9491383647340328  0.5612559104175077   F   F   F
  0.7227823995382252  0.9490447429350297  0.9383644261873343   F   F   F
  0.7776732161573108  0.4491484251660580  0.4390025558383996   F   F   F
  0.7226787684336031  0.5508136617239430  0.9391842004662863   F   F   F
  0.7778432285907471  0.0507156409953282  0.4388852294433576   F   F   F
  0.1225810583078157  0.0535680326212784  0.0481909009916706   F   F   F
  0.3779071695922340  0.5534946277475683  0.5499065949314570   F   F   F
  0.1227145128598934  0.4464350852645822  0.0481891056067383   F   F   F
  0.3783493839521768  0.9467494903767104  0.5487393911338643   F   F   F
  0.8783040974117142  0.9464715230426890  0.9510659335198355   F   F   F
  0.6226687937891171  0.4458518908749767  0.4523859513214177   F   F   F
  0.8781408467367129  0.5535861823532073  0.9514577868551228   F   F   F
  0.6225279869728482  0.0542348286640788  0.4521373113143099   F   F   F
  0.0728794472720011  0.0398190629615272  0.8239103268777654   F   F   F
  0.4272898065849589  0.5407345174853475  0.3244774915758271   F   F   F
  0.0729217505648805  0.4601607038726740  0.8242249549832934   F   F   F
  0.4287848501266964  0.9584280960406062  0.3242603769859898   F   F   F
  0.9275905605746004  0.9600660699696917  0.1757964646873589   F   F   F
  0.5722695946439984  0.4604937712089807  0.6757699970053324   F   F   F
  0.9274937873131961  0.5398259476266674  0.1758841827083941   F   F   F
  0.5723537017656142  0.0395255592247068  0.6761615021986955   F   F   F
  0.2018530170512349  0.0716431176781072  0.7136913942915228   F   F   F
  0.2987622001447150  0.5711196575050721  0.2135458840789255   F   F   F
  0.2016503549107611  0.4282351473995618  0.7142839229658549   F   F   F
  0.2990613142389975  0.9286892381424323  0.2140664045122591   F   F   F
  0.7989290294279670  0.9279446717228836  0.2866596765348817   F   F   F
  0.7011822275556696  0.4288013076343518  0.7861147996882636   F   F   F
  0.7992646620190484  0.5717005445548011  0.2867268303262023   F   F   F
  0.7012559804541425  0.0711998179098430  0.7858490781430945   F   F   F
  0.4231365135905065  0.8284181108164006  0.6894798009722720   F   F   F
  0.0769173459606449  0.3278809393055795  0.1859310909559113   F   F   F
  0.4227765057218349  0.6718060330983988  0.6898880778519896   F   F   F
  0.0769693932808337  0.1720989129704407  0.1858583943079637   F   F   F
  0.5765951623382861  0.1718780434523950  0.3138806096137188   F   F   F
  0.9230952110684569  0.6720068308801572  0.8135679734526349   F   F   F
  0.5768349141104991  0.3286814494521195  0.3140356426675694   F   F   F
  0.9234789489988273  0.8280260236842452  0.8129734017474632   F   F   F
  0.3171262456791055  0.8742748264266922  0.8362444752001323   F   F   F
  0.1833522696506762  0.3735674028432854  0.3339384644685026   F   F   F
  0.3162176664777547  0.6254625930191082  0.8360092706221138   F   F   F
  0.1833440941894864  0.1259901636344765  0.3339899673262394   F   F   F
  0.6835429616437239  0.1262702319564255  0.1656522397927915   F   F   F
  0.8169808715114186  0.6257605812079277  0.6660723549767198   F   F   F
  0.6834767484654733  0.3739093885156564  0.1661377294545545   F   F   F
  0.8175305726767661  0.8743168501459095  0.6656298327980892   F   F   F
  0.2717244310606191  0.8285527999718241  0.0407336767232280   F   F   F
  0.2272591197462646  0.3274686911222346  0.5391805518468331   F   F   F
  0.2712273631668438  0.6721919370041576  0.0397462935698698   F   F   F
  0.2271722879386786  0.1724808095398629  0.5388839461737192   F   F   F
  0.7266987708177624  0.1721894738219305  0.9601551264751294   F   F   F
  0.7726265113989967  0.6722840725266437  0.4611812827369093   F   F   F
  0.7267349669381105  0.3279060390420412  0.9605991186248133   F   F   F
  0.7729416372495805  0.8283831189134574  0.4617050411995933   F   F   F
  0.1160410446968214  0.8279592776128482  0.0238916218100442   F   F   F
  0.3827700347909513  0.3278227168799006  0.5250202065573362   F   F   F
  0.1159078777117912  0.6723367517259433  0.0234851112704391   F   F   F
  0.3827144420226603  0.1722081094413355  0.5245820218081718   F   F   F
  0.8827388719755831  0.1721163887890924  0.9750780672584725   F   F   F
  0.6179791842110944  0.6704635705772191  0.4780454541512142   F   F   F
  0.8827674240817771  0.3280370650091271  0.9752313847857366   F   F   F
  0.6180680226396689  0.8298248758064517  0.4784007375545727   F   F   F
  0.0693329905257585  0.8811868409779251  0.8162017295655772   F   F   F
  0.4309155333700119  0.3814983451322291  0.3172104618359981   F   F   F
  0.0688053605305754  0.6186752521460051  0.8161353872135919   F   F   F
  0.4306510529302585  0.1180971669208759  0.3170320394302664   F   F   F
  0.9309933538576445  0.1190097044440037  0.1835700529294044   F   F   F
  0.5691663826696143  0.6189729296743351  0.6847098021439422   F   F   F
  0.9310143020803636  0.3810107080977261  0.1834684838207750   F   F   F
  0.5695216656552162  0.8811509483298750  0.6849174566653815   F   F   F
  0.1954943349787541  0.8278886719854768  0.7025059953370061   F   F   F
  0.3054190309526419  0.3277862263932221  0.2024064681069291   F   F   F
  0.1948816160014673  0.6723532579072327  0.7028787056314059   F   F   F
  0.3055527100699038  0.1722211548310639  0.2027286411962805   F   F   F
  0.8052170699111372  0.1722960671297997  0.2973312923669553   F   F   F
  0.6955711426688183  0.6723479435398261  0.7983763642613440   F   F   F
  0.8052844775790575  0.3277991688313051  0.2974970006697077   F   F   F
  0.6959848547480760  0.8279579406349455  0.7975847358389743   F   F   F
  0.3969100067758831  0.7447197754833610  0.2876299514728231   F   F   F
  0.4009675317748176  0.7449557811732817  0.4542790907851000   F   F   F
  0.4822492351090517  0.7311444287090509  0.1348424272403790   T   T   T
  0.5012610195404008  0.7528862380106531  0.2353151235822111   T   T   T
  0.4905229062314689  0.7726716146154970  0.0775267054897810   T   T   T
  0.5072721861786889  0.6861996806501054  0.1021001523516887   T   T   T
  0.4305027688343870  0.7197584186810957  0.1288970684606596   T   T   T
  0.5469827897941215  0.7871628658792744  0.2235871923568311   T   T   T
  0.5191208294564902  0.7281734462591416  0.3060859817748209   T   T   T
  0.4711856730147659  0.7794396923950941  0.3289157049196688   T   T   T
 
  0.00000000E+00  0.00000000E+00  0.00000000E+00
  0.00000000E+00  0.00000000E+00  0.00000000E+00
  0.00000000E+00  0.00000000E+00  0.00000000E+00
  0.00000000E+00  0.00000000E+00  0.00000000E+00
  0.00000000E+00  0.00000000E+00  0.00000000E+00
  0.00000000E+00  0.00000000E+00  0.00000000E+00
  0.00000000E+00  0.00000000E+00  0.00000000E+00
  0.00000000E+00  0.00000000E+00  0.00000000E+00
  0.00000000E+00  0.00000000E+00  0.00000000E+00
  0.00000000E+00  0.00000000E+00  0.00000000E+00
  0.00000000E+00  0.00000000E+00  0.00000000E+00
  0.00000000E+00  0.00000000E+00  0.00000000E+00
  0.00000000E+00  0.00000000E+00  0.00000000E+00
  0.00000000E+00  0.00000000E+00  0.00000000E+00
  0.00000000E+00  0.00000000E+00  0.00000000E+00
  0.00000000E+00  0.00000000E+00  0.00000000E+00
  0.00000000E+00  0.00000000E+00  0.00000000E+00
  0.00000000E+00  0.00000000E+00  0.00000000E+00
  0.00000000E+00  0.00000000E+00  0.00000000E+00
  0.00000000E+00  0.00000000E+00  0.00000000E+00
  0.00000000E+00  0.00000000E+00  0.00000000E+00
  0.00000000E+00  0.00000000E+00  0.00000000E+00
  0.00000000E+00  0.00000000E+00  0.00000000E+00
  0.00000000E+00  0.00000000E+00  0.00000000E+00
  0.00000000E+00  0.00000000E+00  0.00000000E+00
  0.00000000E+00  0.00000000E+00  0.00000000E+00
  0.00000000E+00  0.00000000E+00  0.00000000E+00
  0.00000000E+00  0.00000000E+00  0.00000000E+00
  0.00000000E+00  0.00000000E+00  0.00000000E+00
  0.00000000E+00  0.00000000E+00  0.00000000E+00
  0.00000000E+00  0.00000000E+00  0.00000000E+00
  0.00000000E+00  0.00000000E+00  0.00000000E+00
  0.00000000E+00  0.00000000E+00  0.00000000E+00
  0.00000000E+00  0.00000000E+00  0.00000000E+00
  0.00000000E+00  0.00000000E+00  0.00000000E+00
  0.00000000E+00  0.00000000E+00  0.00000000E+00
  0.00000000E+00  0.00000000E+00  0.00000000E+00
  0.00000000E+00  0.00000000E+00  0.00000000E+00
  0.00000000E+00  0.00000000E+00  0.00000000E+00
  0.00000000E+00  0.00000000E+00  0.00000000E+00
  0.00000000E+00  0.00000000E+00  0.00000000E+00
  0.00000000E+00  0.00000000E+00  0.00000000E+00
  0.00000000E+00  0.00000000E+00  0.00000000E+00
  0.00000000E+00  0.00000000E+00  0.00000000E+00
  0.00000000E+00  0.00000000E+00  0.00000000E+00
  0.00000000E+00  0.00000000E+00  0.00000000E+00
  0.00000000E+00  0.00000000E+00  0.00000000E+00
  0.00000000E+00  0.00000000E+00  0.00000000E+00
  0.00000000E+00  0.00000000E+00  0.00000000E+00
  0.00000000E+00  0.00000000E+00  0.00000000E+00
  0.00000000E+00  0.00000000E+00  0.00000000E+00
  0.00000000E+00  0.00000000E+00  0.00000000E+00
  0.00000000E+00  0.00000000E+00  0.00000000E+00
  0.00000000E+00  0.00000000E+00  0.00000000E+00
  0.00000000E+00  0.00000000E+00  0.00000000E+00
  0.00000000E+00  0.00000000E+00  0.00000000E+00
  0.00000000E+00  0.00000000E+00  0.00000000E+00
  0.00000000E+00  0.00000000E+00  0.00000000E+00
  0.00000000E+00  0.00000000E+00  0.00000000E+00
  0.00000000E+00  0.00000000E+00  0.00000000E+00
  0.00000000E+00  0.00000000E+00  0.00000000E+00
  0.00000000E+00  0.00000000E+00  0.00000000E+00
  0.00000000E+00  0.00000000E+00  0.00000000E+00
  0.00000000E+00  0.00000000E+00  0.00000000E+00
  0.00000000E+00  0.00000000E+00  0.00000000E+00
  0.00000000E+00  0.00000000E+00  0.00000000E+00
  0.00000000E+00  0.00000000E+00  0.00000000E+00
  0.00000000E+00  0.00000000E+00  0.00000000E+00
  0.00000000E+00  0.00000000E+00  0.00000000E+00
  0.00000000E+00  0.00000000E+00  0.00000000E+00
  0.00000000E+00  0.00000000E+00  0.00000000E+00
  0.00000000E+00  0.00000000E+00  0.00000000E+00
  0.00000000E+00  0.00000000E+00  0.00000000E+00
  0.00000000E+00  0.00000000E+00  0.00000000E+00
  0.00000000E+00  0.00000000E+00  0.00000000E+00
  0.00000000E+00  0.00000000E+00  0.00000000E+00
  0.00000000E+00  0.00000000E+00  0.00000000E+00
  0.00000000E+00  0.00000000E+00  0.00000000E+00
  0.00000000E+00  0.00000000E+00  0.00000000E+00
  0.00000000E+00  0.00000000E+00  0.00000000E+00
  0.00000000E+00  0.00000000E+00  0.00000000E+00
  0.00000000E+00  0.00000000E+00  0.00000000E+00
  0.00000000E+00  0.00000000E+00  0.00000000E+00
  0.00000000E+00  0.00000000E+00  0.00000000E+00
  0.00000000E+00  0.00000000E+00  0.00000000E+00
  0.00000000E+00  0.00000000E+00  0.00000000E+00
  0.00000000E+00  0.00000000E+00  0.00000000E+00
  0.00000000E+00  0.00000000E+00  0.00000000E+00
  0.00000000E+00  0.00000000E+00  0.00000000E+00
  0.00000000E+00  0.00000000E+00  0.00000000E+00
  0.00000000E+00  0.00000000E+00  0.00000000E+00
  0.00000000E+00  0.00000000E+00  0.00000000E+00
  0.00000000E+00  0.00000000E+00  0.00000000E+00
  0.00000000E+00  0.00000000E+00  0.00000000E+00
  0.00000000E+00  0.00000000E+00  0.00000000E+00
  0.00000000E+00  0.00000000E+00  0.00000000E+00
  0.00000000E+00  0.00000000E+00  0.00000000E+00
  0.00000000E+00  0.00000000E+00  0.00000000E+00
  0.00000000E+00  0.00000000E+00  0.00000000E+00
  0.00000000E+00  0.00000000E+00  0.00000000E+00
  0.00000000E+00  0.00000000E+00  0.00000000E+00
  0.00000000E+00  0.00000000E+00  0.00000000E+00
  0.00000000E+00  0.00000000E+00  0.00000000E+00
  0.00000000E+00  0.00000000E+00  0.00000000E+00
  0.00000000E+00  0.00000000E+00  0.00000000E+00
  0.00000000E+00  0.00000000E+00  0.00000000E+00
  0.00000000E+00  0.00000000E+00  0.00000000E+00
  0.00000000E+00  0.00000000E+00  0.00000000E+00
  0.00000000E+00  0.00000000E+00  0.00000000E+00
  0.00000000E+00  0.00000000E+00  0.00000000E+00
  0.00000000E+00  0.00000000E+00  0.00000000E+00
  0.00000000E+00  0.00000000E+00  0.00000000E+00
  0.00000000E+00  0.00000000E+00  0.00000000E+00
  0.00000000E+00  0.00000000E+00  0.00000000E+00
  0.00000000E+00  0.00000000E+00  0.00000000E+00
  0.00000000E+00  0.00000000E+00  0.00000000E+00
  0.00000000E+00  0.00000000E+00  0.00000000E+00
  0.00000000E+00  0.00000000E+00  0.00000000E+00
  0.00000000E+00  0.00000000E+00  0.00000000E+00
  0.00000000E+00  0.00000000E+00  0.00000000E+00
  0.00000000E+00  0.00000000E+00  0.00000000E+00
  0.00000000E+00  0.00000000E+00  0.00000000E+00
  0.00000000E+00  0.00000000E+00  0.00000000E+00
  0.00000000E+00  0.00000000E+00  0.00000000E+00
  0.00000000E+00  0.00000000E+00  0.00000000E+00
  0.00000000E+00  0.00000000E+00  0.00000000E+00
  0.00000000E+00  0.00000000E+00  0.00000000E+00
  0.00000000E+00  0.00000000E+00  0.00000000E+00
  0.00000000E+00  0.00000000E+00  0.00000000E+00
  0.00000000E+00  0.00000000E+00  0.00000000E+00
  0.00000000E+00  0.00000000E+00  0.00000000E+00
  0.00000000E+00  0.00000000E+00  0.00000000E+00
  0.00000000E+00  0.00000000E+00  0.00000000E+00
  0.00000000E+00  0.00000000E+00  0.00000000E+00
  0.00000000E+00  0.00000000E+00  0.00000000E+00
  0.00000000E+00  0.00000000E+00  0.00000000E+00
  0.00000000E+00  0.00000000E+00  0.00000000E+00
  0.00000000E+00  0.00000000E+00  0.00000000E+00
  0.00000000E+00  0.00000000E+00  0.00000000E+00
  0.00000000E+00  0.00000000E+00  0.00000000E+00
  0.00000000E+00  0.00000000E+00  0.00000000E+00
  0.00000000E+00  0.00000000E+00  0.00000000E+00
  0.00000000E+00  0.00000000E+00  0.00000000E+00
  0.00000000E+00  0.00000000E+00  0.00000000E+00
  0.00000000E+00  0.00000000E+00  0.00000000E+00
  0.00000000E+00  0.00000000E+00  0.00000000E+00
  0.00000000E+00  0.00000000E+00  0.00000000E+00
  0.00000000E+00  0.00000000E+00  0.00000000E+00
  0.00000000E+00  0.00000000E+00  0.00000000E+00
  0.00000000E+00  0.00000000E+00  0.00000000E+00
  0.00000000E+00  0.00000000E+00  0.00000000E+00
  0.00000000E+00  0.00000000E+00  0.00000000E+00
  0.00000000E+00  0.00000000E+00  0.00000000E+00
  0.00000000E+00  0.00000000E+00  0.00000000E+00
  0.00000000E+00  0.00000000E+00  0.00000000E+00
  0.00000000E+00  0.00000000E+00  0.00000000E+00
  0.00000000E+00  0.00000000E+00  0.00000000E+00
  0.00000000E+00  0.00000000E+00  0.00000000E+00
  0.00000000E+00  0.00000000E+00  0.00000000E+00
  0.00000000E+00  0.00000000E+00  0.00000000E+00
  0.00000000E+00  0.00000000E+00  0.00000000E+00