O  Si Ru C  H                           
   1.00000000000000     
    20.3096463179830877    0.0000000000000000    0.0000000000000000
     0.0000000000000000   19.8625212307842212    0.0000000000000000
     0.0000000000000000    0.0000000000000000   13.3711533343531652
   O    Si   Ru   C    H 
   192    96     1     2     4
Selective dynamics
Direct
  0.5025909357277101  0.0727798873228238  0.7075249800237629   F   F   F
  0.9974090642722899  0.5727798873228238  0.2075249800237629   F   F   F
  0.5025909357277101  0.4272201126771762  0.7075249800237629   F   F   F
  0.9972675267388524  0.9272346129787508  0.2075138751940386   F   F   F
  0.4974774163448075  0.9273878440986252  0.2923867822359512   F   F   F
  0.0025909357277101  0.4272201126771762  0.7924750199762371   F   F   F
  0.4974090642722899  0.5727798873228238  0.2924750199762371   F   F   F
  0.0025909357277101  0.0727798873228238  0.7924750199762371   F   F   F
  0.3868825154844515  0.0693889629433002  0.7958398315398867   F   F   F
  0.1131174845155485  0.5693889629433002  0.2958398315398867   F   F   F
  0.3868825154844515  0.4306110370566998  0.7958398315398867   F   F   F
  0.1130199569581052  0.9306290515745275  0.2956765042089629   F   F   F
  0.6127341668401272  0.9309276835773233  0.2035501112965079   F   F   F
  0.8868825154844515  0.4306110370566998  0.7041601684601133   F   F   F
  0.6131174845155485  0.5693889629433002  0.2041601684601133   F   F   F
  0.8868825154844515  0.0693889629433002  0.7041601684601133   F   F   F
  0.4023996572529711  0.1395881488352799  0.6299567877606833   F   F   F
  0.0979006562978881  0.6396759406761703  0.1304392272919088   F   F   F
  0.4023996572529711  0.3604118511647201  0.6299567877606833   F   F   F
  0.0973414549394818  0.8603671903323331  0.1298911207077396   F   F   F
  0.5984173392580274  0.8601232454937673  0.3686268347092465   F   F   F
  0.9023996572529711  0.3604118511647201  0.8700432122393167   F   F   F
  0.5983850299275488  0.6398417036902018  0.3688852361929236   F   F   F
  0.9023996572529711  0.1395881488352799  0.8700432122393167   F   F   F
  0.4045031871746829  0.0051825304987858  0.6227513228883907   F   F   F
  0.0954968128253171  0.5051825304987858  0.1227513228883836   F   F   F
  0.4045031871746829  0.4948174695012142  0.6227513228883907   F   F   F
  0.0954395164575672  0.9947422760456277  0.1225805310866619   F   F   F
  0.5955510288161960  0.9946741315861729  0.3774015325180073   F   F   F
  0.9045031871746829  0.4948174695012142  0.8772486771116093   F   F   F
  0.5954968128253171  0.5051825304987858  0.3772486771116164   F   F   F
  0.9045031871746829  0.0051825304987858  0.8772486771116093   F   F   F
  0.3244131055804047  0.0395323330820503  0.9639933782656485   F   F   F
  0.1755868944195953  0.5395323330820503  0.4639933782656414   F   F   F
  0.3244131055804047  0.4604676669179497  0.9639933782656485   F   F   F
  0.1751477271404767  0.9605411848667629  0.4639259940207481   F   F   F
  0.6759064477748638  0.9605918541206151  0.0360197320018045   F   F   F
  0.8244131055804047  0.4604676669179497  0.5360066217343515   F   F   F
  0.6755868944195953  0.5395323330820503  0.0360066217343515   F   F   F
  0.8244131055804047  0.0395323330820503  0.5360066217343515   F   F   F
  0.3249588433266837  0.9536286748846621  0.8088934749533934   F   F   F
  0.1753558411149996  0.4538071248021893  0.3088267361878323   F   F   F
  0.3246441588850004  0.5461928751978107  0.8088267361878323   F   F   F
  0.1753558411149996  0.0461928751978107  0.3088267361878323   F   F   F
  0.6753558411149996  0.0461928751978107  0.1911732638121677   F   F   F
  0.8246441588850004  0.5461928751978107  0.6911732638121677   F   F   F
  0.6753558411149996  0.4538071248021893  0.1911732638121677   F   F   F
  0.8245346721493831  0.9538736170805464  0.6914010818369505   F   F   F
  0.2554253162963604  0.0666022326352760  0.8022081905298890   F   F   F
  0.2445746837036396  0.5666022326352760  0.3022081905298890   F   F   F
  0.2554253162963604  0.4333977673647240  0.8022081905298890   F   F   F
  0.2444081571318790  0.9333539876128611  0.3021023219885350   F   F   F
  0.7442344344526077  0.9331502054747105  0.1983257172035664   F   F   F
  0.7554253162963604  0.4333977673647240  0.6977918094701110   F   F   F
  0.7445746837036396  0.5666022326352760  0.1977918094701110   F   F   F
  0.7554253162963604  0.0666022326352760  0.6977918094701110   F   F   F
  0.2915288497951138  0.1271841775282851  0.1038202525947156   F   F   F
  0.2084115926226318  0.6271177624926949  0.6040039804987245   F   F   F
  0.2915288497951138  0.3728158224717149  0.1038202525947156   F   F   F
  0.2095736999700861  0.8731675553098981  0.6033906786877026   F   F   F
  0.7078274266222095  0.8728338661596027  0.8959776578034351   F   F   F
  0.7915288497951138  0.3728158224717149  0.3961797474052844   F   F   F
  0.7088028651912026  0.6272544228070842  0.8961734690219316   F   F   F
  0.7915288497951138  0.1271841775282851  0.3961797474052844   F   F   F
  0.2010413266345239  0.0428271635220199  0.0290771958813778   F   F   F
  0.2989586733654761  0.5428271635220199  0.5290771958813778   F   F   F
  0.2010413266345239  0.4571728364779801  0.0290771958813778   F   F   F
  0.2987101239188874  0.9588140893950055  0.5276354006316524   F   F   F
  0.7991059746467855  0.9564210401099089  0.9702338437409495   F   F   F
  0.7010413266345239  0.4571728364779801  0.4709228041186222   F   F   F
  0.7989586733654761  0.5428271635220199  0.9709228041186222   F   F   F
  0.7010413266345239  0.0428271635220199  0.4709228041186222   F   F   F
  0.2968895493308423  0.9978563749150382  0.1470275059927886   F   F   F
  0.2031104506691577  0.4978563749150382  0.6470275059927815   F   F   F
  0.2968895493308423  0.5021436250849618  0.1470275059927886   F   F   F
  0.2031104506691577  0.0021436250849618  0.6470275059927815   F   F   F
  0.7031104506691577  0.0021436250849618  0.8529724940072185   F   F   F
  0.7968895493308423  0.5021436250849618  0.3529724940072114   F   F   F
  0.7031104506691577  0.4978563749150382  0.8529724940072185   F   F   F
  0.7968895493308423  0.9978563749150382  0.3529724940072114   F   F   F
  0.1089942560051327  0.1267462740242564  0.0958674480733634   F   F   F
  0.3893091632126087  0.6252832427971384  0.6004856467277833   F   F   F
  0.1089942560051327  0.3732537259757436  0.0958674480733634   F   F   F
  0.3883053494843054  0.8737701168364893  0.5980732315233084   F   F   F
  0.8920760726172787  0.8731427263166651  0.9042050401943627   F   F   F
  0.6089942560051327  0.3732537259757436  0.4041325519266366   F   F   F
  0.8914638146308249  0.6266315335144341  0.9039181040270776   F   F   F
  0.6089942560051327  0.1267462740242564  0.4041325519266366   F   F   F
  0.0831228757301545  0.0463555586530404  0.9432954022258713   F   F   F
  0.4168771242698455  0.5463555586530404  0.4432954022258713   F   F   F
  0.0831228757301545  0.4536444413469596  0.9432954022258713   F   F   F
  0.4170900251761083  0.9535303582250307  0.4439527806935359   F   F   F
  0.9169857728234945  0.9537466671929096  0.0565485382875366   F   F   F
  0.5831228757301545  0.4536444413469596  0.5567045977741287   F   F   F
  0.9168771242698455  0.5463555586530404  0.0567045977741287   F   F   F
  0.5831228757301545  0.0463555586530404  0.5567045977741287   F   F   F
  0.1289595153762306  0.0794086100630622  0.7630589808606629   F   F   F
  0.3710404846237694  0.5794086100630622  0.2630589808606629   F   F   F
  0.1289595153762306  0.4205913899369378  0.7630589808606629   F   F   F
  0.3711205008952660  0.9208555344847085  0.2633053138260308   F   F   F
  0.8708773813624333  0.9206962324249943  0.2363536932015080   F   F   F
  0.6289595153762306  0.4205913899369378  0.7369410191393371   F   F   F
  0.8710404846237694  0.5794086100630622  0.2369410191393371   F   F   F
  0.6289595153762306  0.0794086100630622  0.7369410191393371   F   F   F
  0.0735815937566215  0.9603240243932305  0.7910036658500275   F   F   F
  0.4264236799621770  0.4603034831418356  0.2908788493740602   F   F   F
  0.0735763200378230  0.5396965168581644  0.7908788493740531   F   F   F
  0.4264236799621770  0.0396965168581644  0.2908788493740602   F   F   F
  0.9264236799621770  0.0396965168581644  0.2091211506259398   F   F   F
  0.5735763200378230  0.5396965168581644  0.7091211506259469   F   F   F
  0.9264236799621770  0.4603034831418356  0.2091211506259398   F   F   F
  0.5731931063998488  0.9603052565169605  0.7095065199703825   F   F   F
  0.2164898181671191  0.1361625178643777  0.6465161981987251   F   F   F
  0.2840006362979750  0.6362421626336499  0.1462625426954745   F   F   F
  0.2164898181671191  0.3638374821356223  0.6465161981987251   F   F   F
  0.2841392020404570  0.8636456496768119  0.1469398607895513   F   F   F
  0.7846388432310292  0.8635399962977033  0.3532148351315172   F   F   F
  0.7164898181671191  0.3638374821356223  0.8534838018012749   F   F   F
  0.7842540990388898  0.6364415134850248  0.3529835364511698   F   F   F
  0.7164898181671191  0.1361625178643777  0.8534838018012749   F   F   F
  0.4961167641333191  0.8525753353193224  0.7112504844573948   F   F   F
  0.0041870730047435  0.3531357233755159  0.2140092002379745   F   F   F
  0.4974158156925625  0.6490254674866023  0.7125779319723478   F   F   F
  0.0041870730047435  0.1468642766244841  0.2140092002379745   F   F   F
  0.5041870730047435  0.1468642766244841  0.2859907997620255   F   F   F
  0.9966948497610844  0.6472356264734813  0.7860950851931321   F   F   F
  0.5041870730047435  0.3531357233755159  0.2859907997620255   F   F   F
  0.9964366401786293  0.8526979016322329  0.7851332635085413   F   F   F
  0.3791967776804057  0.8328566056314983  0.7882530940764951   F   F   F
  0.1223394308142645  0.3330694750354013  0.2858074615356969   F   F   F
  0.3798408258527388  0.6671612443154302  0.7876933986724950   F   F   F
  0.1223394308142645  0.1669305249645987  0.2858074615356969   F   F   F
  0.6223394308142645  0.1669305249645987  0.2141925384643031   F   F   F
  0.8786963841655080  0.6664528601248989  0.7137209521114656   F   F   F
  0.6223394308142645  0.3330694750354013  0.2141925384643031   F   F   F
  0.8777157928455566  0.8332402117243660  0.7144203478877671   F   F   F
  0.4221390727812278  0.7501334123113566  0.6443064913836096   F   F   F
  0.0759212098317121  0.2500000000000000  0.1472425182485750   F   F   F
  0.5759212098317121  0.2500000000000000  0.3527574817514250   F   F   F
  0.9244732229231332  0.7498677558824767  0.8524684218568694   F   F   F
  0.3175240150998562  0.8648355482480099  0.9557855664921746   F   F   F
  0.1824716471111429  0.3646363999312143  0.4553082923555465   F   F   F
  0.3180520252389840  0.6354534138073404  0.9552120407287816   F   F   F
  0.1824716471111429  0.1353636000687857  0.4553082923555465   F   F   F
  0.6824716471111429  0.1353636000687857  0.0446917076444535   F   F   F
  0.8182049305833914  0.6351829333866803  0.5444729356695959   F   F   F
  0.6824716471111429  0.3646363999312143  0.0446917076444535   F   F   F
  0.8180011045692339  0.8647471133037499  0.5448658952810206   F   F   F
  0.2489031558096855  0.8459960277015597  0.7896343614272894   F   F   F
  0.2524421241138057  0.3470288878372898  0.2906042087582890   F   F   F
  0.2495587377448132  0.6545656076107136  0.7893441184561638   F   F   F
  0.2524421241138057  0.1529711121627102  0.2906042087582890   F   F   F
  0.7524421241138057  0.1529711121627102  0.2093957912417110   F   F   F
  0.7486260078832814  0.6537339415285501  0.7096167411200298   F   F   F
  0.7524421241138057  0.3470288878372898  0.2093957912417110   F   F   F
  0.7475464223426442  0.8470311872594749  0.7093936954973614   F   F   F
  0.2956662525133495  0.7499306254366402  0.0500414983886373   F   F   F
  0.2047512101703362  0.2500000000000000  0.5502475789369754   F   F   F
  0.7047512101703362  0.2500000000000000  0.9497524210630175   F   F   F
  0.7957070011224516  0.7499499640740055  0.4504503236812667   F   F   F
  0.1962185950264370  0.8326617972754420  0.0069653497791080   F   F   F
  0.3039666124841744  0.3327166449111161  0.5062562090960796   F   F   F
  0.1963022338999352  0.6671200650019884  0.0060540286013051   F   F   F
  0.3039666124841744  0.1672833550888839  0.5062562090960796   F   F   F
  0.8039666124841744  0.1672833550888839  0.9937437909039204   F   F   F
  0.6967007147570925  0.6661618529151028  0.4928726075018233   F   F   F
  0.8039666124841744  0.3327166449111161  0.9937437909039204   F   F   F
  0.6967333015647625  0.8338120433447713  0.4927659674449316   F   F   F
  0.0934518318205519  0.7498154786468945  0.0199940739554023   F   F   F
  0.4068435254241223  0.2500000000000000  0.5199589040338424   F   F   F
  0.9068435254241223  0.2500000000000000  0.9800410959661576   F   F   F
  0.5957557328130889  0.7500610026977625  0.4823742348637197   F   F   F
  0.0812362850218307  0.8693246402451251  0.9339192437264288   F   F   F
  0.4191681511649463  0.3696157380695979  0.4342049483443873   F   F   F
  0.0810252325591279  0.6299069785176741  0.9350496956819470   F   F   F
  0.4191681511649463  0.1303842619304021  0.4342049483443873   F   F   F
  0.9191681511649392  0.1303842619304021  0.0657950516556127   F   F   F
  0.5825743731612576  0.6288779710648100  0.5650527473033904   F   F   F
  0.9191681511649392  0.3696157380695979  0.0657950516556127   F   F   F
  0.5822214177558180  0.8710043945864996  0.5646337269873314   F   F   F
  0.1223891063119638  0.8406004422328479  0.7473009857050954   F   F   F
  0.3785939221413273  0.3399016741142518  0.2475054947775277   F   F   F
  0.1226960662007315  0.6599944228961192  0.7494786585426993   F   F   F
  0.3785939221413273  0.1600983258857482  0.2475054947775277   F   F   F
  0.8785939221413201  0.1600983258857482  0.2524945052224723   F   F   F
  0.6223263475671743  0.6598641195035881  0.7519924862491223   F   F   F
  0.8785939221413201  0.3399016741142518  0.2524945052224723   F   F   F
  0.6212040696396812  0.8397054745579311  0.7519020495825330   F   F   F
  0.2029272161942757  0.7501754017501909  0.6698904266886458   F   F   F
  0.2968133864148328  0.2500000000000000  0.1713179004415224   F   F   F
  0.7968133864148328  0.2500000000000000  0.3286820995584776   F   F   F
  0.7031690154753250  0.7501230375980441  0.8290379781990893   F   F   F
  0.4240099490616913  0.0712238689892644  0.6879805273312769   F   F   F
  0.0759900509383087  0.5712238689892644  0.1879805273312769   F   F   F
  0.4240099490616913  0.4287761310107356  0.6879805273312769   F   F   F
  0.0758227546165031  0.9287741713446138  0.1879310174383448   F   F   F
  0.5760067993969500  0.9286786503758790  0.3118571145622226   F   F   F
  0.9240099490616913  0.4287761310107356  0.8120194726687231   F   F   F
  0.5759900509383087  0.5712238689892644  0.3120194726687231   F   F   F
  0.9240099490616913  0.0712238689892644  0.8120194726687231   F   F   F
  0.3227198167376812  0.0323507114762833  0.8432574132120010   F   F   F
  0.1772801832623188  0.5323507114762833  0.3432574132120010   F   F   F
  0.3227198167376812  0.4676492885237167  0.8432574132120010   F   F   F
  0.1771838225198081  0.9676590806385406  0.3431250763097822   F   F   F
  0.6772179902119788  0.9676940268381387  0.1567738197654407   F   F   F
  0.8227198167376812  0.4676492885237167  0.6567425867879990   F   F   F
  0.6772801832623188  0.5323507114762833  0.1567425867879990   F   F   F
  0.8227198167376812  0.0323507114762833  0.6567425867879990   F   F   F
  0.2779386767015382  0.0519583657721796  0.0611307184073340   F   F   F
  0.2220613232984618  0.5519583657721796  0.5611307184073340   F   F   F
  0.2779386767015382  0.4480416342278204  0.0611307184073340   F   F   F
  0.2220910471094797  0.9485470153559987  0.5605857221306678   F   F   F
  0.7220693430580241  0.9479115936616580  0.9386591564387743   F   F   F
  0.7779386767015382  0.4480416342278204  0.4388692815926660   F   F   F
  0.7220613232984618  0.5519583657721796  0.9388692815926660   F   F   F
  0.7779386767015382  0.0519583657721796  0.4388692815926660   F   F   F
  0.1225104503909904  0.0527779080613016  0.0479940299588080   F   F   F
  0.3774895496090096  0.5527779080612945  0.5479940299588080   F   F   F
  0.1225104503909904  0.4472220919386984  0.0479940299588080   F   F   F
  0.3768979745247165  0.9477317126702047  0.5476038287486560   F   F   F
  0.8777493213037815  0.9469953012483145  0.9518179845245385   F   F   F
  0.6225104503909904  0.4472220919386984  0.4520059700411920   F   F   F
  0.8774895496090096  0.5527779080612945  0.9520059700411920   F   F   F
  0.6225104503909904  0.0527779080613016  0.4520059700411920   F   F   F
  0.0722297752641694  0.0390952680378902  0.8235403254031510   F   F   F
  0.4277702247358306  0.5390952680378902  0.3235403254031510   F   F   F
  0.0722297752641694  0.4609047319621098  0.8235403254031510   F   F   F
  0.4278894541905132  0.9608024341023977  0.3241000664403373   F   F   F
  0.9277081627075674  0.9609532596263222  0.1762623576271309   F   F   F
  0.5722297752641694  0.4609047319621098  0.6764596745968490   F   F   F
  0.9277702247358306  0.5390952680378902  0.1764596745968490   F   F   F
  0.5722297752641694  0.0390952680378902  0.6764596745968490   F   F   F
  0.2011043077742869  0.0703822647950858  0.7135284737427909   F   F   F
  0.2988956922257131  0.5703822647950858  0.2135284737427909   F   F   F
  0.2011043077742869  0.4296177352049142  0.7135284737427909   F   F   F
  0.2990103814821268  0.9296751527105513  0.2138540657326047   F   F   F
  0.7989567073296016  0.9295833437106680  0.2864569926076612   F   F   F
  0.7011043077742869  0.4296177352049142  0.7864715262572091   F   F   F
  0.7988956922257131  0.5703822647950858  0.2864715262572091   F   F   F
  0.7011043077742869  0.0703822647950858  0.7864715262572091   F   F   F
  0.4219871172093335  0.8290047391571704  0.6859362172024959   F   F   F
  0.0776147133579599  0.3277153649932174  0.1851848138450478   F   F   F
  0.4231603068233341  0.6712946287462245  0.6857273024010837   F   F   F
  0.0776147133579599  0.1722846350067826  0.1851848138450478   F   F   F
  0.5776147133579599  0.1722846350067826  0.3148151861549522   F   F   F
  0.9230550551819547  0.6721133575483265  0.8146338875506487   F   F   F
  0.5776147133579599  0.3277153649932174  0.3148151861549522   F   F   F
  0.9229322076503408  0.8275868246294067  0.8145189663781096   F   F   F
  0.3173439017967041  0.8744033007587930  0.8354108884269067   F   F   F
  0.1830680121786585  0.3744867008663704  0.3347839836351412   F   F   F
  0.3180154166647355  0.6257341183602065  0.8346564477929164   F   F   F
  0.1830680121786585  0.1255132991336296  0.3347839836351412   F   F   F
  0.6830680121786585  0.1255132991336296  0.1652160163648588   F   F   F
  0.8175819766205308  0.6255165302400485  0.6649960519923255   F   F   F
  0.6830680121786585  0.3744867008663704  0.1652160163648588   F   F   F
  0.8169520575290576  0.8745429070408619  0.6653032184890222   F   F   F
  0.2728509827139547  0.8277001116366876  0.0403762515273840   F   F   F
  0.2273307924942145  0.3277299682844301  0.5397963552221228   F   F   F
  0.2729159606328153  0.6721561642249441  0.0395606642984418   F   F   F
  0.2273307924942145  0.1722700317155699  0.5397963552221228   F   F   F
  0.7273307924942145  0.1722700317155699  0.9602036447778772   F   F   F
  0.7732517413779902  0.6721133104842139  0.4599830602669357   F   F   F
  0.7273307924942145  0.3277299682844301  0.9602036447778772   F   F   F
  0.7733332552015710  0.8277976395817319  0.4600910780155729   F   F   F
  0.1171971031316161  0.8278245297027382  0.0230530334715269   F   F   F
  0.3829046392724536  0.3279865241180246  0.5228273843902258   F   F   F
  0.1173566076976158  0.6718857644774090  0.0232401805414639   F   F   F
  0.3829046392724536  0.1720134758819754  0.5228273843902258   F   F   F
  0.8829046392724536  0.1720134758819754  0.9771726156097742   F   F   F
  0.6176170293557988  0.6716780406117735  0.4765840156748382   F   F   F
  0.8829046392724536  0.3279865241180246  0.9771726156097742   F   F   F
  0.6177480449423740  0.8282901252861308  0.4762245084775358   F   F   F
  0.0687563711869572  0.8804932813674640  0.8148077017156581   F   F   F
  0.4316422255872467  0.3805306503245163  0.3150522314059216   F   F   F
  0.0689508267487824  0.6193617824622493  0.8157276321815914   F   F   F
  0.4316422255872467  0.1194693496754837  0.3150522314059216   F   F   F
  0.9316422255872467  0.1194693496754837  0.1849477685940784   F   F   F
  0.5694629536035833  0.6194283740891962  0.6839079372833226   F   F   F
  0.9316422255872467  0.3805306503245163  0.1849477685940784   F   F   F
  0.5689817575679186  0.8807757162737175  0.6835131326778381   F   F   F
  0.1957030237211441  0.8282782204030283  0.7026368964527308   F   F   F
  0.3049811923033445  0.3281471210548332  0.2034825387585641   F   F   F
  0.1956785429236874  0.6721376977923157  0.7033112507869106   F   F   F
  0.3049811923033445  0.1718528789451668  0.2034825387585641   F   F   F
  0.8049811923033445  0.1718528789451668  0.2965174612414359   F   F   F
  0.6957380505308635  0.6719777990128648  0.7964364158026882   F   F   F
  0.8049811923033445  0.3281471210548332  0.2965174612414359   F   F   F
  0.6948310699048506  0.8281173715264671  0.7962558116315179   F   F   F
  0.4343556855736779  0.7425624498014614  0.4666191020999761   F   F   F
  0.4468558515559025  0.7513088343226713  0.2286761438076184   T   T   T
  0.4448680096924917  0.7412078045360886  0.3372389923502297   T   T   T
  0.4432370768968781  0.8054177714148594  0.2130444570408372   T   T   T
  0.4926837959509527  0.7314206912128043  0.1955301752404779   T   T   T
  0.4045342497562032  0.7256681438485160  0.1931298598474385   T   T   T
  0.4773519509932456  0.6828909832400782  0.3852757501417798   T   T   T
 
  0.00000000E+00  0.00000000E+00  0.00000000E+00
  0.00000000E+00  0.00000000E+00  0.00000000E+00
  0.00000000E+00  0.00000000E+00  0.00000000E+00
  0.00000000E+00  0.00000000E+00  0.00000000E+00
  0.00000000E+00  0.00000000E+00  0.00000000E+00
  0.00000000E+00  0.00000000E+00  0.00000000E+00
  0.00000000E+00  0.00000000E+00  0.00000000E+00
  0.00000000E+00  0.00000000E+00  0.00000000E+00
  0.00000000E+00  0.00000000E+00  0.00000000E+00
  0.00000000E+00  0.00000000E+00  0.00000000E+00
  0.00000000E+00  0.00000000E+00  0.00000000E+00
  0.00000000E+00  0.00000000E+00  0.00000000E+00
  0.00000000E+00  0.00000000E+00  0.00000000E+00
  0.00000000E+00  0.00000000E+00  0.00000000E+00
  0.00000000E+00  0.00000000E+00  0.00000000E+00
  0.00000000E+00  0.00000000E+00  0.00000000E+00
  0.00000000E+00  0.00000000E+00  0.00000000E+00
  0.00000000E+00  0.00000000E+00  0.00000000E+00
  0.00000000E+00  0.00000000E+00  0.00000000E+00
  0.00000000E+00  0.00000000E+00  0.00000000E+00
  0.00000000E+00  0.00000000E+00  0.00000000E+00
  0.00000000E+00  0.00000000E+00  0.00000000E+00
  0.00000000E+00  0.00000000E+00  0.00000000E+00
  0.00000000E+00  0.00000000E+00  0.00000000E+00
  0.00000000E+00  0.00000000E+00  0.00000000E+00
  0.00000000E+00  0.00000000E+00  0.00000000E+00
  0.00000000E+00  0.00000000E+00  0.00000000E+00
  0.00000000E+00  0.00000000E+00  0.00000000E+00
  0.00000000E+00  0.00000000E+00  0.00000000E+00
  0.00000000E+00  0.00000000E+00  0.00000000E+00
  0.00000000E+00  0.00000000E+00  0.00000000E+00
  0.00000000E+00  0.00000000E+00  0.00000000E+00
  0.00000000E+00  0.00000000E+00  0.00000000E+00
  0.00000000E+00  0.00000000E+00  0.00000000E+00
  0.00000000E+00  0.00000000E+00  0.00000000E+00
  0.00000000E+00  0.00000000E+00  0.00000000E+00
  0.00000000E+00  0.00000000E+00  0.00000000E+00
  0.00000000E+00  0.00000000E+00  0.00000000E+00
  0.00000000E+00  0.00000000E+00  0.00000000E+00
  0.00000000E+00  0.00000000E+00  0.00000000E+00
  0.00000000E+00  0.00000000E+00  0.00000000E+00
  0.00000000E+00  0.00000000E+00  0.00000000E+00
  0.00000000E+00  0.00000000E+00  0.00000000E+00
  0.00000000E+00  0.00000000E+00  0.00000000E+00
  0.00000000E+00  0.00000000E+00  0.00000000E+00
  0.00000000E+00  0.00000000E+00  0.00000000E+00
  0.00000000E+00  0.00000000E+00  0.00000000E+00
  0.00000000E+00  0.00000000E+00  0.00000000E+00
  0.00000000E+00  0.00000000E+00  0.00000000E+00
  0.00000000E+00  0.00000000E+00  0.00000000E+00
  0.00000000E+00  0.00000000E+00  0.00000000E+00
  0.00000000E+00  0.00000000E+00  0.00000000E+00
  0.00000000E+00  0.00000000E+00  0.00000000E+00
  0.00000000E+00  0.00000000E+00  0.00000000E+00
  0.00000000E+00  0.00000000E+00  0.00000000E+00
  0.00000000E+00  0.00000000E+00  0.00000000E+00
  0.00000000E+00  0.00000000E+00  0.00000000E+00
  0.00000000E+00  0.00000000E+00  0.00000000E+00
  0.00000000E+00  0.00000000E+00  0.00000000E+00
  0.00000000E+00  0.00000000E+00  0.00000000E+00
  0.00000000E+00  0.00000000E+00  0.00000000E+00
  0.00000000E+00  0.00000000E+00  0.00000000E+00
  0.00000000E+00  0.00000000E+00  0.00000000E+00
  0.00000000E+00  0.00000000E+00  0.00000000E+00
  0.00000000E+00  0.00000000E+00  0.00000000E+00
  0.00000000E+00  0.00000000E+00  0.00000000E+00
  0.00000000E+00  0.00000000E+00  0.00000000E+00
  0.00000000E+00  0.00000000E+00  0.00000000E+00
  0.00000000E+00  0.00000000E+00  0.00000000E+00
  0.00000000E+00  0.00000000E+00  0.00000000E+00
  0.00000000E+00  0.00000000E+00  0.00000000E+00
  0.00000000E+00  0.00000000E+00  0.00000000E+00
  0.00000000E+00  0.00000000E+00  0.00000000E+00
  0.00000000E+00  0.00000000E+00  0.00000000E+00
  0.00000000E+00  0.00000000E+00  0.00000000E+00
  0.00000000E+00  0.00000000E+00  0.00000000E+00
  0.00000000E+00  0.00000000E+00  0.00000000E+00
  0.00000000E+00  0.00000000E+00  0.00000000E+00
  0.00000000E+00  0.00000000E+00  0.00000000E+00
  0.00000000E+00  0.00000000E+00  0.00000000E+00
  0.00000000E+00  0.00000000E+00  0.00000000E+00
  0.00000000E+00  0.00000000E+00  0.00000000E+00
  0.00000000E+00  0.00000000E+00  0.00000000E+00
  0.00000000E+00  0.00000000E+00  0.00000000E+00
  0.00000000E+00  0.00000000E+00  0.00000000E+00
  0.00000000E+00  0.00000000E+00  0.00000000E+00
  0.00000000E+00  0.00000000E+00  0.00000000E+00
  0.00000000E+00  0.00000000E+00  0.00000000E+00
  0.00000000E+00  0.00000000E+00  0.00000000E+00
  0.00000000E+00  0.00000000E+00  0.00000000E+00
  0.00000000E+00  0.00000000E+00  0.00000000E+00
  0.00000000E+00  0.00000000E+00  0.00000000E+00
  0.00000000E+00  0.00000000E+00  0.00000000E+00
  0.00000000E+00  0.00000000E+00  0.00000000E+00
  0.00000000E+00  0.00000000E+00  0.00000000E+00
  0.00000000E+00  0.00000000E+00  0.00000000E+00
  0.00000000E+00  0.00000000E+00  0.00000000E+00
  0.00000000E+00  0.00000000E+00  0.00000000E+00
  0.00000000E+00  0.00000000E+00  0.00000000E+00
  0.00000000E+00  0.00000000E+00  0.00000000E+00
  0.00000000E+00  0.00000000E+00  0.00000000E+00
  0.00000000E+00  0.00000000E+00  0.00000000E+00
  0.00000000E+00  0.00000000E+00  0.00000000E+00
  0.00000000E+00  0.00000000E+00  0.00000000E+00
  0.00000000E+00  0.00000000E+00  0.00000000E+00
  0.00000000E+00  0.00000000E+00  0.00000000E+00
  0.00000000E+00  0.00000000E+00  0.00000000E+00
  0.00000000E+00  0.00000000E+00  0.00000000E+00
  0.00000000E+00  0.00000000E+00  0.00000000E+00
  0.00000000E+00  0.00000000E+00  0.00000000E+00
  0.00000000E+00  0.00000000E+00  0.00000000E+00
  0.00000000E+00  0.00000000E+00  0.00000000E+00
  0.00000000E+00  0.00000000E+00  0.00000000E+00
  0.00000000E+00  0.00000000E+00  0.00000000E+00
  0.00000000E+00  0.00000000E+00  0.00000000E+00
  0.00000000E+00  0.00000000E+00  0.00000000E+00
  0.00000000E+00  0.00000000E+00  0.00000000E+00
  0.00000000E+00  0.00000000E+00  0.00000000E+00
  0.00000000E+00  0.00000000E+00  0.00000000E+00
  0.00000000E+00  0.00000000E+00  0.00000000E+00
  0.00000000E+00  0.00000000E+00  0.00000000E+00
  0.00000000E+00  0.00000000E+00  0.00000000E+00
  0.00000000E+00  0.00000000E+00  0.00000000E+00
  0.00000000E+00  0.00000000E+00  0.00000000E+00
  0.00000000E+00  0.00000000E+00  0.00000000E+00
  0.00000000E+00  0.00000000E+00  0.00000000E+00
  0.00000000E+00  0.00000000E+00  0.00000000E+00
  0.00000000E+00  0.00000000E+00  0.00000000E+00
  0.00000000E+00  0.00000000E+00  0.00000000E+00
  0.00000000E+00  0.00000000E+00  0.00000000E+00
  0.00000000E+00  0.00000000E+00  0.00000000E+00
  0.00000000E+00  0.00000000E+00  0.00000000E+00
  0.00000000E+00  0.00000000E+00  0.00000000E+00
  0.00000000E+00  0.00000000E+00  0.00000000E+00
  0.00000000E+00  0.00000000E+00  0.00000000E+00
  0.00000000E+00  0.00000000E+00  0.00000000E+00
  0.00000000E+00  0.00000000E+00  0.00000000E+00
  0.00000000E+00  0.00000000E+00  0.00000000E+00
  0.00000000E+00  0.00000000E+00  0.00000000E+00
  0.00000000E+00  0.00000000E+00  0.00000000E+00
  0.00000000E+00  0.00000000E+00  0.00000000E+00
  0.00000000E+00  0.00000000E+00  0.00000000E+00
  0.00000000E+00  0.00000000E+00  0.00000000E+00
  0.00000000E+00  0.00000000E+00  0.00000000E+00
  0.00000000E+00  0.00000000E+00  0.00000000E+00
  0.00000000E+00  0.00000000E+00  0.00000000E+00
  0.00000000E+00  0.00000000E+00  0.00000000E+00
  0.00000000E+00  0.00000000E+00  0.00000000E+00
  0.00000000E+00  0.00000000E+00  0.00000000E+00
  0.00000000E+00  0.00000000E+00  0.00000000E+00
  0.00000000E+00  0.00000000E+00  0.00000000E+00
  0.00000000E+00  0.00000000E+00  0.00000000E+00
  0.00000000E+00  0.00000000E+00  0.00000000E+00
  0.00000000E+00  0.00000000E+00  0.00000000E+00
  0.00000000E+00  0.00000000E+00  0.00000000E+00
  0.00000000E+00  0.00000000E+00  0.00000000E+00
  0.00000000E+00  0.00000000E+00  0.00000000E+00
  0.00000000E+00  0.00000000E+00  0.00000000E+00
  0.00000000E+00  0.00000000E+00  0.00000000E+00
  0.00000000E+00  0.00000000E+00  0.00000000E+00
  0.00000000E+00  0.00000000E+00  0.00000000E+00
  0.00000000E+00  0.00000000E+00  0.00000000E+00
  0.00000000E+00  0.00000000E+00  0.00000000E+00
  0.00000000E+00  0.00000000E+00  0.00000000E+00
  0.00000000E+00  0.00000000E+00  0.00000000E+00