O  Si Ru C  H                           
   1.00000000000000     
    20.3096463179830877    0.0000000000000000    0.0000000000000000
     0.0000000000000000   19.8625212307842212    0.0000000000000000
     0.0000000000000000    0.0000000000000000   13.3711533343531652
   O    Si   Ru   C    H 
   192    96     4     2     4
Selective dynamics
Direct
  0.5029607204063069  0.0547615456241530  0.7109704279037672   F   F   F
  0.9936332983538847  0.5687631207167243  0.2134497851245598   F   F   F
  0.5056954338942887  0.4361576398040938  0.7139822278773451   F   F   F
  0.9967274831117763  0.9368288648160430  0.2106603908074760   F   F   F
  0.4960587257999762  0.9435510106643292  0.2841014898114622   F   F   F
  0.0062204050779329  0.4303210470795236  0.7907652492534041   F   F   F
  0.4955812081155528  0.5649577878115082  0.2919349487455349   F   F   F
  0.0029073769146208  0.0605728650062218  0.7849138280187375   F   F   F
  0.3861813817813839  0.0662059685743159  0.7894493619347926   F   F   F
  0.1077276354137311  0.5611509773023471  0.3065821673970603   F   F   F
  0.3918809985795093  0.4397800504148464  0.8064496911985159   F   F   F
  0.1146046205908888  0.9332898091908817  0.2915739404879218   F   F   F
  0.6132876890365466  0.9349515198270026  0.2050686337813730   F   F   F
  0.8919535382568071  0.4400225482615383  0.6987167274476960   F   F   F
  0.6084689188905443  0.5581046016667415  0.1965319988023282   F   F   F
  0.8853511756484806  0.0659697718860599  0.7049803970261763   F   F   F
  0.4150474830918824  0.1336618682921156  0.6253097459284334   F   F   F
  0.0976998418722559  0.6335866888992427  0.1415166058437620   F   F   F
  0.4044806558245710  0.3703206705381561  0.6382841087798568   F   F   F
  0.0908590551150965  0.8624517087965202  0.1296465445871746   F   F   F
  0.5874836408443329  0.8652208261861603  0.3675945324192540   F   F   F
  0.9013087843930876  0.3677533688363752  0.8635844654073637   F   F   F
  0.6028007126784161  0.6271539972962046  0.3636060382057167   F   F   F
  0.9112729300555031  0.1385859988065050  0.8654761657347905   F   F   F
  0.4011615569524878  0.0009435742129185  0.6170721107680848   F   F   F
  0.0914304285790877  0.4995028739734053  0.1308275543173281   F   F   F
  0.4064428838535150  0.5046020370669737  0.6359365758276994   F   F   F
  0.0962040614941344  0.9968479502566368  0.1173510869231364   F   F   F
  0.5959934953938841  0.9973654739097455  0.3814093180153577   F   F   F
  0.9105709277050877  0.5017540597453447  0.8746727355079642   F   F   F
  0.5925683154249839  0.4943145459197922  0.3716812388102753   F   F   F
  0.9021360533176690  0.0050993135285466  0.8818066520194918   F   F   F
  0.3236134422558123  0.0392260267037230  0.9599191594479564   F   F   F
  0.1782368834924171  0.5366399799584087  0.4691191224149307   F   F   F
  0.3222937560301631  0.4629416355010250  0.9701832320832366   F   F   F
  0.1747368451920650  0.9641022005022393  0.4613641422596544   F   F   F
  0.6756436465843549  0.9643881315656984  0.0374312931436194   F   F   F
  0.8220558746130209  0.4623147969966510  0.5348358689231887   F   F   F
  0.6788469600844635  0.5351133697728656  0.0339551164980065   F   F   F
  0.8232823887581162  0.0363788147381285  0.5369599703434389   F   F   F
  0.3189864122115438  0.9536060452300674  0.8027312247556893   F   F   F
  0.1828483885049934  0.4527867822950853  0.3111102665792558   F   F   F
  0.3146360684641323  0.5474044904642739  0.8143722798687563   F   F   F
  0.1763931584827958  0.0488157298486627  0.3034706954268529   F   F   F
  0.6817243891965035  0.0470652329295689  0.1974912898864432   F   F   F
  0.8143659125641065  0.5463470316599341  0.6928954124564655   F   F   F
  0.6855883929168485  0.4520120458098162  0.1932636110937551   F   F   F
  0.8172427787602814  0.9534723383135528  0.6964337876772575   F   F   F
  0.2547888780889664  0.0696980969380263  0.7997552528043954   F   F   F
  0.2383637541660093  0.5734814621887807  0.3028171970601505   F   F   F
  0.2615195668341670  0.4263854798650968  0.8028420425566622   F   F   F
  0.2468294506975894  0.9373439260917635  0.3028157856213127   F   F   F
  0.7443926579455109  0.9307705647785056  0.1966800389019880   F   F   F
  0.7610668380963901  0.4255273462380416  0.7006805687891102   F   F   F
  0.7393009071646972  0.5723553271733905  0.1994027543777435   F   F   F
  0.7538152602690644  0.0693412123449804  0.6962098607684410   F   F   F
  0.2935698333557113  0.1297367806175558  0.0975780782737203   F   F   F
  0.2049984033068597  0.6217061080114448  0.6149601322354243   F   F   F
  0.2932987802306073  0.3797089937181823  0.1165899471800884   F   F   F
  0.1971122287976996  0.8749585373214686  0.6028435109901480   F   F   F
  0.7030156150404139  0.8756482764396978  0.8969216513540985   F   F   F
  0.7956486520526269  0.3772141855077251  0.3887648118791702   F   F   F
  0.7055925940792278  0.6216703723410149  0.8900913687870897   F   F   F
  0.7978429826601641  0.1239653326254526  0.3938977083974180   F   F   F
  0.2005841292206156  0.0479598236556882  0.0249371922588182   F   F   F
  0.3012405789812007  0.5478333057939793  0.5352117586994751   F   F   F
  0.1994465649581088  0.4574402589805047  0.0361259961007505   F   F   F
  0.2969307113709903  0.9467016049845540  0.5277327003945658   F   F   F
  0.7984374911445755  0.9529114009166975  0.9728248014729814   F   F   F
  0.6992448906045823  0.4516268063244695  0.4686837059148630   F   F   F
  0.8011314047643410  0.5439035454873675  0.9648424344599107   F   F   F
  0.7011659186232890  0.0480383871606591  0.4694560630274296   F   F   F
  0.2947147145255187  0.0017671348013266  0.1424808693338946   F   F   F
  0.2086382128610751  0.4906965905736413  0.6485824256492592   F   F   F
  0.2937777608218823  0.5104537758440557  0.1487728875443750   F   F   F
  0.2065686067340238  0.0051392524757574  0.6423915600964776   F   F   F
  0.7060307281284608  0.0055515981679974  0.8557463990421539   F   F   F
  0.7917520098935071  0.5084083557870969  0.3554971459312597   F   F   F
  0.7060163677287647  0.4908610711805252  0.8532208888131194   F   F   F
  0.7944880599922612  0.9935737629927743  0.3549990667995857   F   F   F
  0.1092917969622178  0.1304269242755893  0.0990110898904106   F   F   F
  0.3915132394075655  0.6352489572530331  0.6001516074539452   F   F   F
  0.1099941944322964  0.3689511133122352  0.0991753362227001   F   F   F
  0.3910241014119507  0.8671612093336662  0.6011714854982984   F   F   F
  0.8884547669659710  0.8715792229060000  0.8941940371161152   F   F   F
  0.6099998868936822  0.3639345766687683  0.4015036168439821   F   F   F
  0.8906714736861403  0.6323144281846567  0.9003526542978335   F   F   F
  0.6102214419767478  0.1308641031915982  0.3948479192616077   F   F   F
  0.0817086643318277  0.0547190572749940  0.9422337744210054   F   F   F
  0.4208321477376558  0.5482807986238569  0.4532608031916325   F   F   F
  0.0819085376668625  0.4509006466248309  0.9490798389478030   F   F   F
  0.4143310577946693  0.9437538522654449  0.4419552451000897   F   F   F
  0.9173110319815123  0.9437717614729095  0.0541108609594829   F   F   F
  0.5810051758894943  0.4444586653962617  0.5525270153250119   F   F   F
  0.9169651639983201  0.5537463858253275  0.0551391112197734   F   F   F
  0.5834706854906884  0.0581250294508067  0.5549415926556449   F   F   F
  0.1283319039729918  0.0780331403139627  0.7590611438846011   F   F   F
  0.3678576548559391  0.5801867459734069  0.2750207045004345   F   F   F
  0.1336227631567937  0.4191626858443556  0.7721151623851910   F   F   F
  0.3707087229377422  0.9224623476630924  0.2514246597411542   F   F   F
  0.8710655622461587  0.9197324655028964  0.2374484070255392   F   F   F
  0.6326460074132925  0.4162930560610079  0.7306462652797805   F   F   F
  0.8670016213461977  0.5818955711553855  0.2346419222600673   F   F   F
  0.6275826015515307  0.0791171613436887  0.7401312851129447   F   F   F
  0.0846979515753858  0.9569217621098787  0.8058640950909890   F   F   F
  0.4156863451451756  0.4595704466438733  0.3050229600393379   F   F   F
  0.0818626021824898  0.5394914465462222  0.7993031448934147   F   F   F
  0.4106274845774394  0.0423515629171547  0.3099423918271356   F   F   F
  0.9154206234656499  0.0407834988095814  0.1923411941654507   F   F   F
  0.5894142027748259  0.5389077611442090  0.6941312315843433   F   F   F
  0.9158112597607939  0.4614183300710337  0.2001386723194969   F   F   F
  0.5908487645770890  0.9569202721619732  0.6852171556417375   F   F   F
  0.2139876036330008  0.1395416903514501  0.6456590622984919   F   F   F
  0.2873707737616584  0.6441433319597181  0.1534490619882618   F   F   F
  0.2137206474441058  0.3569056836028039  0.6522343446509922   F   F   F
  0.2746856891436025  0.8684559746897449  0.1430756441345125   F   F   F
  0.7830070458760687  0.8598802936190069  0.3506164846238491   F   F   F
  0.7146995859091163  0.3564233699984882  0.8515879007118627   F   F   F
  0.7823104118388855  0.6421269521372537  0.3523392024842238   F   F   F
  0.7161054533302007  0.1398591986956816  0.8514101917813477   F   F   F
  0.4955733090335599  0.8669048565742585  0.7210837769427059   F   F   F
  0.0026867060279372  0.3615080231384695  0.2153917627467692   F   F   F
  0.4999074927350478  0.6354008867923469  0.7164414543588222   F   F   F
  0.0050241144851313  0.1379185538147922  0.2195895346020222   F   F   F
  0.5045402109859864  0.1339554740245461  0.2755848166786947   F   F   F
  0.0000106519857113  0.6437774918559143  0.7887082517974093   F   F   F
  0.5025311176580161  0.3613297712405625  0.2840619731680789   F   F   F
  0.9936853210696199  0.8619503766920715  0.7749193584784919   F   F   F
  0.3790444273344988  0.8349629427184908  0.7937665857149909   F   F   F
  0.1179312455946189  0.3365682224444697  0.2924143469793705   F   F   F
  0.3860018217856194  0.6600491561678226  0.7965718920135387   F   F   F
  0.1222973531297740  0.1691473818204656  0.2894489684999542   F   F   F
  0.6205078981551964  0.1654019444127144  0.2032748850090158   F   F   F
  0.8856138701265976  0.6594177024299981  0.7049815846363856   F   F   F
  0.6177439010855892  0.3364676160780391  0.2065922311044162   F   F   F
  0.8766734640137770  0.8347397457515058  0.7029363529155859   F   F   F
  0.4386663470731165  0.7502976222630267  0.6716706637190129   F   F   F
  0.0665297712595887  0.2503998360995752  0.1588309896164688   F   F   F
  0.5645429580835639  0.2477340540033524  0.3337484714114822   F   F   F
  0.9287686860120559  0.7515523607047712  0.8358881560021771   F   F   F
  0.3094739597119798  0.8687789986093648  0.9521877337251965   F   F   F
  0.1821836989449821  0.3653815599821186  0.4598043605063395   F   F   F
  0.3171780865860967  0.6376710793645941  0.9602205183841619   F   F   F
  0.1876654171113046  0.1345011022098817  0.4526130224642273   F   F   F
  0.6906270559399132  0.1294220989953985  0.0444962593570963   F   F   F
  0.8136602977063490  0.6329015355714773  0.5440732531122592   F   F   F
  0.6845246363810844  0.3660018498231636  0.0436905471414235   F   F   F
  0.8054356787251464  0.8707816335841301  0.5442615140952469   F   F   F
  0.2489950707289879  0.8430677134893543  0.7810100508040065   F   F   F
  0.2484422797211465  0.3384765314331801  0.2939628892454280   F   F   F
  0.2560578892616903  0.6647753425083494  0.7886019349854863   F   F   F
  0.2530764465814883  0.1564048499265098  0.2838641200308558   F   F   F
  0.7508934037812978  0.1595565813192934  0.2142838171899797   F   F   F
  0.7554012751763324  0.6640070283724029  0.7160328644879925   F   F   F
  0.7478476360889772  0.3361699505947513  0.2120537161342497   F   F   F
  0.7462368618486437  0.8417014704734527  0.7149301182526173   F   F   F
  0.2868439204074917  0.7537947052633029  0.0458235774396059   F   F   F
  0.2172450218740494  0.2498728586872616  0.5393670241531936   F   F   F
  0.7093146113829079  0.2481669579934263  0.9621766095838922   F   F   F
  0.7942767208667334  0.7511881227383554  0.4609040988623292   F   F   F
  0.1881124385999016  0.8363143488181848  0.0021336385528699   F   F   F
  0.3061781247478095  0.3466222935804879  0.5117995074131727   F   F   F
  0.1945605529608443  0.6609643187378680  0.0143762271734147   F   F   F
  0.3097970438828384  0.1561728353680607  0.5118807851554621   F   F   F
  0.8100204121059633  0.1637817482757384  0.9860400349680560   F   F   F
  0.6928669159349639  0.6695845613195246  0.4926482644882597   F   F   F
  0.8060707716505675  0.3366754019569527  0.9914481438387241   F   F   F
  0.6885722925520312  0.8291962653114524  0.4815794148269958   F   F   F
  0.0935546035544945  0.7461271109833589  0.0383554491579332   F   F   F
  0.3982638263027880  0.2529253069151878  0.5472676935425724   F   F   F
  0.9072450211412999  0.2532402006481362  0.9619226901037052   F   F   F
  0.5881262195140238  0.7452882101817053  0.4482037192896300   F   F   F
  0.0678746321507191  0.8567696627545729  0.9354829583768023   F   F   F
  0.4262093838819325  0.3636896271120520  0.4426151140990484   F   F   F
  0.0774989191650235  0.6288307044010395  0.9458493678286501   F   F   F
  0.4267577656742887  0.1493872768271345  0.4287834514570434   F   F   F
  0.9275068125155030  0.1402333516161605  0.0619656351090256   F   F   F
  0.5760548783507602  0.6349001975664805  0.5586701461696748   F   F   F
  0.9239874242236681  0.3686576088477054  0.0588207331028414   F   F   F
  0.5735092149958874  0.8521056823924269  0.5658764105443339   F   F   F
  0.1198914874411656  0.8344020685668454  0.7542401054305898   F   F   F
  0.3759839120059070  0.3375711958697423  0.2606165159085734   F   F   F
  0.1269887846552038  0.6619286170960379  0.7664114170557568   F   F   F
  0.3799481108908225  0.1628072508232492  0.2425424806996546   F   F   F
  0.8791728755733530  0.1627761662404339  0.2460233525883169   F   F   F
  0.6264373382715505  0.6618502758748548  0.7403321133061027   F   F   F
  0.8764706682256218  0.3378743387342666  0.2407369350519843   F   F   F
  0.6194441022257990  0.8355020184111694  0.7526690931055882   F   F   F
  0.1983131474504773  0.7488673514567310  0.6624901194441222   F   F   F
  0.2990027266236126  0.2524462776594234  0.1642036365110542   F   F   F
  0.8025890359406134  0.2501527269198434  0.3381646350149197   F   F   F
  0.6993388905105888  0.7492314868286201  0.8406044503224450   F   F   F
  0.4258057702648586  0.0633071074908500  0.6842147827627869   F   F   F
  0.0728946718954262  0.5655067997286594  0.1970036475054258   F   F   F
  0.4270913161657290  0.4372804477639747  0.6973910931103049   F   F   F
  0.0747987417325646  0.9331130727980579  0.1864470999291328   F   F   F
  0.5727667537209200  0.9354896380416520  0.3107905016535781   F   F   F
  0.9273378014378153  0.4351493122989538  0.8077861909339532   F   F   F
  0.5745776161111920  0.5608001934767870  0.3072140455466226   F   F   F
  0.9251164580026767  0.0671816415547752  0.8102132654447516   F   F   F
  0.3208946066495244  0.0320225869448123  0.8384642609386646   F   F   F
  0.1771553812057221  0.5313447631723065  0.3480276540299343   F   F   F
  0.3226859953065642  0.4695802834883409  0.8494229674880316   F   F   F
  0.1782014230333786  0.9706087984231289  0.3404130057652495   F   F   F
  0.6788281811645049  0.9693309989891503  0.1584018559606406   F   F   F
  0.8223791720069542  0.4684019587060746  0.6556995993310153   F   F   F
  0.6780314825552622  0.5294193909835911  0.1545645312903901   F   F   F
  0.8199960087613647  0.0314053007396708  0.6577470206857114   F   F   F
  0.2778596880900750  0.0535333355712453  0.0574122517698825   F   F   F
  0.2234357284223165  0.5496774095649570  0.5673225498636469   F   F   F
  0.2765251406626845  0.4525982475635004  0.0684680920169214   F   F   F
  0.2194598504004901  0.9471165840852649  0.5584153067227220   F   F   F
  0.7210704303492363  0.9495619435666640  0.9401504150247177   F   F   F
  0.7768884389631481  0.4496112159239090  0.4364328499763133   F   F   F
  0.7234675574188429  0.5478731740757254  0.9349282558796403   F   F   F
  0.7785258114566176  0.0506841141827223  0.4385273116136474   F   F   F
  0.1219133733788524  0.0575440791453872  0.0467772164452498   F   F   F
  0.3791077325353172  0.5589530359912942  0.5538982298922690   F   F   F
  0.1214292850354610  0.4443978609506090  0.0540149068510445   F   F   F
  0.3756041428640842  0.9381820680156991  0.5455772079318990   F   F   F
  0.8765367567049012  0.9433865687409124  0.9498694795978437   F   F   F
  0.6214590647376426  0.4388584772935431  0.4480554241664976   F   F   F
  0.8794545544581993  0.5577473193225515  0.9484292459754755   F   F   F
  0.6234124675173476  0.0586317258653608  0.4497748229121399   F   F   F
  0.0744822508451719  0.0371584349927758  0.8244070356436168   F   F   F
  0.4245553034311200  0.5389792183162498  0.3324896958492900   F   F   F
  0.0758110043060185  0.4606469095089025  0.8289690452027756   F   F   F
  0.4241709197772536  0.9627253912468490  0.3255945386191854   F   F   F
  0.9251708158218861  0.9607638474665592  0.1726698601498029   F   F   F
  0.5770678216105978  0.4593647796779905  0.6721870720664000   F   F   F
  0.9234586043228745  0.5409489613530809  0.1748354132664645   F   F   F
  0.5761700137852941  0.0368594090428971  0.6717046653589804   F   F   F
  0.2011529423553071  0.0720610539473867  0.7104725359060495   F   F   F
  0.2967110080089981  0.5775096081304696  0.2200454642920633   F   F   F
  0.2043219516811234  0.4242624229484946  0.7181972482773205   F   F   F
  0.2956119091178877  0.9318487922451553  0.2083901012707301   F   F   F
  0.7982862081589488  0.9268800089610281  0.2860379902908363   F   F   F
  0.7039178604264222  0.4232444294429811  0.7848320924063827   F   F   F
  0.7952436018792071  0.5751096246150240  0.2864318724207493   F   F   F
  0.7009314060707510  0.0727473849933773  0.7867031129747915   F   F   F
  0.4258003502335796  0.8298424305329917  0.6952038365108208   F   F   F
  0.0742323009777834  0.3291349526424980  0.1910133901393820   F   F   F
  0.4292440937893645  0.6710405256062941  0.6967302357769469   F   F   F
  0.0753153600646712  0.1719208739171236  0.1909449112701864   F   F   F
  0.5748684655591063  0.1696912116030518  0.3026644283391420   F   F   F
  0.9263072533167076  0.6718536379252882  0.8078070602189200   F   F   F
  0.5735353817079769  0.3271901559692054  0.3071102950606388   F   F   F
  0.9223243107845605  0.8299255329323145  0.8026449311662134   F   F   F
  0.3133720692077375  0.8749172831788385  0.8316199685007462   F   F   F
  0.1821721509094232  0.3735543974868207  0.3386499106337766   F   F   F
  0.3179774867697347  0.6273224146077609  0.8399471703724188   F   F   F
  0.1850986747464205  0.1273772086505573  0.3318478686583646   F   F   F
  0.6861814933643942  0.1256901462088891  0.1654416828069358   F   F   F
  0.8177361956584690  0.6256913951257985  0.6650049953770889   F   F   F
  0.6838162937694463  0.3723911950118506  0.1647530256845826   F   F   F
  0.8113548005020093  0.8748775561201825  0.6651257432146167   F   F   F
  0.2648883694908477  0.8313153055719908  0.0365582790596193   F   F   F
  0.2301444917119326  0.3293821366339529  0.5409144241444181   F   F   F
  0.2711424967483964  0.6741958392173331  0.0448593062234011   F   F   F
  0.2326881094767330  0.1700190097844185  0.5378677639896310   F   F   F
  0.7322740832125803  0.1704443314577020  0.9604101969824441   F   F   F
  0.7707416619566061  0.6737516970210038  0.4619590276392387   F   F   F
  0.7293492108833846  0.3267526006484189  0.9618060976387213   F   F   F
  0.7675435206452974  0.8279409043538806  0.4589133036639907   F   F   F
  0.1104393629394522  0.8251814130261437  0.0265088004778136   F   F   F
  0.3838823269524454  0.3327677028394831  0.5347582358494947   F   F   F
  0.1162293319109295  0.6676316838207725  0.0352152392857832   F   F   F
  0.3870881597048097  0.1732982864310770  0.5286780638437918   F   F   F
  0.8886841926298885  0.1741944147243757  0.9686732031692031   F   F   F
  0.6152510152317703  0.6685465147522862  0.4654464042197120   F   F   F
  0.8846376922483898  0.3313192287465014  0.9687723259206606   F   F   F
  0.6097098513360848  0.8243262977685859  0.4664076545891405   F   F   F
  0.0672035052870186  0.8775347138865044  0.8173524625299109   F   F   F
  0.4297052479243249  0.3803826693089647  0.3235343538015911   F   F   F
  0.0722213866150199  0.6187148175502344  0.8253751168642083   F   F   F
  0.4296625528647127  0.1212179467877235  0.3145528005446181   F   F   F
  0.9312541207287595  0.1204643179572216  0.1797962653036080   F   F   F
  0.5738509853821085  0.6179288741611799  0.6777051278420956   F   F   F
  0.9293811964438774  0.3820928039943681  0.1785789702013929   F   F   F
  0.5702379632988865  0.8779871078126433  0.6810556397891432   F   F   F
  0.1915364210364672  0.8261831139150360  0.6998823260404734   F   F   F
  0.3044222541624890  0.3283811686711076  0.2088338297603869   F   F   F
  0.1965746085391871  0.6735805964122790  0.7081311679721836   F   F   F
  0.3060163174934587  0.1744102834715164  0.1976174950399567   F   F   F
  0.8076385864581113  0.1731184393452594  0.2982847580859200   F   F   F
  0.6964728272672644  0.6730486647704481  0.7966283866688286   F   F   F
  0.8056938954189832  0.3263452345899083  0.2949828392902987   F   F   F
  0.6921872185493143  0.8265921005797878  0.8011996871088911   F   F   F
  0.3145839478697567  0.7650679147035362  0.3420690933857173   F   F   F
  0.4111356895725109  0.8115671784114724  0.2675021100841946   F   F   F
  0.3730117123681183  0.7090702493206109  0.4584655550658496   F   F   F
  0.4723186882463892  0.7473773307004379  0.3940520344294498   F   F   F
  0.4706412344490545  0.7245998789598929  0.2435976171659320   T   T   T
  0.4439987899552307  0.8032490445564591  0.1337229874427095   T   T   T
  0.4198109045109462  0.7756269314027193  0.0690294371516131   T   T   T
  0.4890206043799523  0.8319203122659573  0.1061925387508964   T   T   T
  0.4493884267764798  0.6712118357908352  0.2255156891673238   T   T   T
  0.5211478656816411  0.7259676754551805  0.2114086933087791   T   T   T
 
  0.00000000E+00  0.00000000E+00  0.00000000E+00
  0.00000000E+00  0.00000000E+00  0.00000000E+00
  0.00000000E+00  0.00000000E+00  0.00000000E+00
  0.00000000E+00  0.00000000E+00  0.00000000E+00
  0.00000000E+00  0.00000000E+00  0.00000000E+00
  0.00000000E+00  0.00000000E+00  0.00000000E+00
  0.00000000E+00  0.00000000E+00  0.00000000E+00
  0.00000000E+00  0.00000000E+00  0.00000000E+00
  0.00000000E+00  0.00000000E+00  0.00000000E+00
  0.00000000E+00  0.00000000E+00  0.00000000E+00
  0.00000000E+00  0.00000000E+00  0.00000000E+00
  0.00000000E+00  0.00000000E+00  0.00000000E+00
  0.00000000E+00  0.00000000E+00  0.00000000E+00
  0.00000000E+00  0.00000000E+00  0.00000000E+00
  0.00000000E+00  0.00000000E+00  0.00000000E+00
  0.00000000E+00  0.00000000E+00  0.00000000E+00
  0.00000000E+00  0.00000000E+00  0.00000000E+00
  0.00000000E+00  0.00000000E+00  0.00000000E+00
  0.00000000E+00  0.00000000E+00  0.00000000E+00
  0.00000000E+00  0.00000000E+00  0.00000000E+00
  0.00000000E+00  0.00000000E+00  0.00000000E+00
  0.00000000E+00  0.00000000E+00  0.00000000E+00
  0.00000000E+00  0.00000000E+00  0.00000000E+00
  0.00000000E+00  0.00000000E+00  0.00000000E+00
  0.00000000E+00  0.00000000E+00  0.00000000E+00
  0.00000000E+00  0.00000000E+00  0.00000000E+00
  0.00000000E+00  0.00000000E+00  0.00000000E+00
  0.00000000E+00  0.00000000E+00  0.00000000E+00
  0.00000000E+00  0.00000000E+00  0.00000000E+00
  0.00000000E+00  0.00000000E+00  0.00000000E+00
  0.00000000E+00  0.00000000E+00  0.00000000E+00
  0.00000000E+00  0.00000000E+00  0.00000000E+00
  0.00000000E+00  0.00000000E+00  0.00000000E+00
  0.00000000E+00  0.00000000E+00  0.00000000E+00
  0.00000000E+00  0.00000000E+00  0.00000000E+00
  0.00000000E+00  0.00000000E+00  0.00000000E+00
  0.00000000E+00  0.00000000E+00  0.00000000E+00
  0.00000000E+00  0.00000000E+00  0.00000000E+00
  0.00000000E+00  0.00000000E+00  0.00000000E+00
  0.00000000E+00  0.00000000E+00  0.00000000E+00
  0.00000000E+00  0.00000000E+00  0.00000000E+00
  0.00000000E+00  0.00000000E+00  0.00000000E+00
  0.00000000E+00  0.00000000E+00  0.00000000E+00
  0.00000000E+00  0.00000000E+00  0.00000000E+00
  0.00000000E+00  0.00000000E+00  0.00000000E+00
  0.00000000E+00  0.00000000E+00  0.00000000E+00
  0.00000000E+00  0.00000000E+00  0.00000000E+00
  0.00000000E+00  0.00000000E+00  0.00000000E+00
  0.00000000E+00  0.00000000E+00  0.00000000E+00
  0.00000000E+00  0.00000000E+00  0.00000000E+00
  0.00000000E+00  0.00000000E+00  0.00000000E+00
  0.00000000E+00  0.00000000E+00  0.00000000E+00
  0.00000000E+00  0.00000000E+00  0.00000000E+00
  0.00000000E+00  0.00000000E+00  0.00000000E+00
  0.00000000E+00  0.00000000E+00  0.00000000E+00
  0.00000000E+00  0.00000000E+00  0.00000000E+00
  0.00000000E+00  0.00000000E+00  0.00000000E+00
  0.00000000E+00  0.00000000E+00  0.00000000E+00
  0.00000000E+00  0.00000000E+00  0.00000000E+00
  0.00000000E+00  0.00000000E+00  0.00000000E+00
  0.00000000E+00  0.00000000E+00  0.00000000E+00
  0.00000000E+00  0.00000000E+00  0.00000000E+00
  0.00000000E+00  0.00000000E+00  0.00000000E+00
  0.00000000E+00  0.00000000E+00  0.00000000E+00
  0.00000000E+00  0.00000000E+00  0.00000000E+00
  0.00000000E+00  0.00000000E+00  0.00000000E+00
  0.00000000E+00  0.00000000E+00  0.00000000E+00
  0.00000000E+00  0.00000000E+00  0.00000000E+00
  0.00000000E+00  0.00000000E+00  0.00000000E+00
  0.00000000E+00  0.00000000E+00  0.00000000E+00
  0.00000000E+00  0.00000000E+00  0.00000000E+00
  0.00000000E+00  0.00000000E+00  0.00000000E+00
  0.00000000E+00  0.00000000E+00  0.00000000E+00
  0.00000000E+00  0.00000000E+00  0.00000000E+00
  0.00000000E+00  0.00000000E+00  0.00000000E+00
  0.00000000E+00  0.00000000E+00  0.00000000E+00
  0.00000000E+00  0.00000000E+00  0.00000000E+00
  0.00000000E+00  0.00000000E+00  0.00000000E+00
  0.00000000E+00  0.00000000E+00  0.00000000E+00
  0.00000000E+00  0.00000000E+00  0.00000000E+00
  0.00000000E+00  0.00000000E+00  0.00000000E+00
  0.00000000E+00  0.00000000E+00  0.00000000E+00
  0.00000000E+00  0.00000000E+00  0.00000000E+00
  0.00000000E+00  0.00000000E+00  0.00000000E+00
  0.00000000E+00  0.00000000E+00  0.00000000E+00
  0.00000000E+00  0.00000000E+00  0.00000000E+00
  0.00000000E+00  0.00000000E+00  0.00000000E+00
  0.00000000E+00  0.00000000E+00  0.00000000E+00
  0.00000000E+00  0.00000000E+00  0.00000000E+00
  0.00000000E+00  0.00000000E+00  0.00000000E+00
  0.00000000E+00  0.00000000E+00  0.00000000E+00
  0.00000000E+00  0.00000000E+00  0.00000000E+00
  0.00000000E+00  0.00000000E+00  0.00000000E+00
  0.00000000E+00  0.00000000E+00  0.00000000E+00
  0.00000000E+00  0.00000000E+00  0.00000000E+00
  0.00000000E+00  0.00000000E+00  0.00000000E+00
  0.00000000E+00  0.00000000E+00  0.00000000E+00
  0.00000000E+00  0.00000000E+00  0.00000000E+00
  0.00000000E+00  0.00000000E+00  0.00000000E+00
  0.00000000E+00  0.00000000E+00  0.00000000E+00
  0.00000000E+00  0.00000000E+00  0.00000000E+00
  0.00000000E+00  0.00000000E+00  0.00000000E+00
  0.00000000E+00  0.00000000E+00  0.00000000E+00
  0.00000000E+00  0.00000000E+00  0.00000000E+00
  0.00000000E+00  0.00000000E+00  0.00000000E+00
  0.00000000E+00  0.00000000E+00  0.00000000E+00
  0.00000000E+00  0.00000000E+00  0.00000000E+00
  0.00000000E+00  0.00000000E+00  0.00000000E+00
  0.00000000E+00  0.00000000E+00  0.00000000E+00
  0.00000000E+00  0.00000000E+00  0.00000000E+00
  0.00000000E+00  0.00000000E+00  0.00000000E+00
  0.00000000E+00  0.00000000E+00  0.00000000E+00
  0.00000000E+00  0.00000000E+00  0.00000000E+00
  0.00000000E+00  0.00000000E+00  0.00000000E+00
  0.00000000E+00  0.00000000E+00  0.00000000E+00
  0.00000000E+00  0.00000000E+00  0.00000000E+00
  0.00000000E+00  0.00000000E+00  0.00000000E+00
  0.00000000E+00  0.00000000E+00  0.00000000E+00
  0.00000000E+00  0.00000000E+00  0.00000000E+00
  0.00000000E+00  0.00000000E+00  0.00000000E+00
  0.00000000E+00  0.00000000E+00  0.00000000E+00
  0.00000000E+00  0.00000000E+00  0.00000000E+00
  0.00000000E+00  0.00000000E+00  0.00000000E+00
  0.00000000E+00  0.00000000E+00  0.00000000E+00
  0.00000000E+00  0.00000000E+00  0.00000000E+00
  0.00000000E+00  0.00000000E+00  0.00000000E+00
  0.00000000E+00  0.00000000E+00  0.00000000E+00
  0.00000000E+00  0.00000000E+00  0.00000000E+00
  0.00000000E+00  0.00000000E+00  0.00000000E+00
  0.00000000E+00  0.00000000E+00  0.00000000E+00
  0.00000000E+00  0.00000000E+00  0.00000000E+00
  0.00000000E+00  0.00000000E+00  0.00000000E+00
  0.00000000E+00  0.00000000E+00  0.00000000E+00
  0.00000000E+00  0.00000000E+00  0.00000000E+00
  0.00000000E+00  0.00000000E+00  0.00000000E+00
  0.00000000E+00  0.00000000E+00  0.00000000E+00
  0.00000000E+00  0.00000000E+00  0.00000000E+00
  0.00000000E+00  0.00000000E+00  0.00000000E+00
  0.00000000E+00  0.00000000E+00  0.00000000E+00
  0.00000000E+00  0.00000000E+00  0.00000000E+00
  0.00000000E+00  0.00000000E+00  0.00000000E+00
  0.00000000E+00  0.00000000E+00  0.00000000E+00
  0.00000000E+00  0.00000000E+00  0.00000000E+00
  0.00000000E+00  0.00000000E+00  0.00000000E+00
  0.00000000E+00  0.00000000E+00  0.00000000E+00
  0.00000000E+00  0.00000000E+00  0.00000000E+00
  0.00000000E+00  0.00000000E+00  0.00000000E+00
  0.00000000E+00  0.00000000E+00  0.00000000E+00
  0.00000000E+00  0.00000000E+00  0.00000000E+00
  0.00000000E+00  0.00000000E+00  0.00000000E+00
  0.00000000E+00  0.00000000E+00  0.00000000E+00
  0.00000000E+00  0.00000000E+00  0.00000000E+00
  0.00000000E+00  0.00000000E+00  0.00000000E+00
  0.00000000E+00  0.00000000E+00  0.00000000E+00
  0.00000000E+00  0.00000000E+00  0.00000000E+00
  0.00000000E+00  0.00000000E+00  0.00000000E+00
  0.00000000E+00  0.00000000E+00  0.00000000E+00
  0.00000000E+00  0.00000000E+00  0.00000000E+00
  0.00000000E+00  0.00000000E+00  0.00000000E+00
  0.00000000E+00  0.00000000E+00  0.00000000E+00
  0.00000000E+00  0.00000000E+00  0.00000000E+00