O  Si Ru C  H                           
   1.00000000000000     
    20.3096463179830877    0.0000000000000000    0.0000000000000000
     0.0000000000000000   19.8625212307842212    0.0000000000000000
     0.0000000000000000    0.0000000000000000   13.3711533343531652
   O    Si   Ru   C    H 
   192    96     3     2     2
Selective dynamics
Direct
  0.5029313868893084  0.0736056898586739  0.7056797488396072   F   F   F
  0.9970709342305923  0.5700941431506195  0.2101107417792676   F   F   F
  0.5029156782155368  0.4264032227791006  0.7056185113083657   F   F   F
  0.9970942898710007  0.9298957265229575  0.2100463142383973   F   F   F
  0.4990739033131533  0.9265031940505111  0.2927069393988688   F   F   F
  0.0035142782013793  0.4285785333706329  0.7894654952589875   F   F   F
  0.4975757488852466  0.5746703460517111  0.2925879147423416   F   F   F
  0.0035156998930290  0.0713936659300103  0.7894054086061644   F   F   F
  0.3889542273213706  0.0656441528638965  0.7983425228615957   F   F   F
  0.1126061781497114  0.5674729697592085  0.2979632816755640   F   F   F
  0.3889565314183088  0.4344077602963097  0.7983868158471594   F   F   F
  0.1132733061087450  0.9324760296913865  0.2976730698170940   F   F   F
  0.6102115645509016  0.9344974849764043  0.1987791992927512   F   F   F
  0.8876286392355013  0.4318494694530202  0.7019652330840529   F   F   F
  0.6117050450593595  0.5652966269615618  0.1987721536895961   F   F   F
  0.8876421007713020  0.0681313477328516  0.7019665889477693   F   F   F
  0.4000702401828562  0.1397116467327848  0.6347682267361776   F   F   F
  0.0965960753333803  0.6386497008528451  0.1331780686473820   F   F   F
  0.4000010007236909  0.3603105879493285  0.6348399781347496   F   F   F
  0.0968817668153079  0.8615087105639532  0.1335423031440257   F   F   F
  0.6034791395208430  0.8627134829942804  0.3661685533572907   F   F   F
  0.9036755615652226  0.3610245773759218  0.8673040386578066   F   F   F
  0.6035847889084849  0.6364628233554157  0.3653809327415161   F   F   F
  0.9036992471418515  0.1389825598366912  0.8673039788316856   F   F   F
  0.4050655113940564  0.0057646817941617  0.6215134371931086   F   F   F
  0.0958457332526237  0.5043192277067945  0.1236977153988050   F   F   F
  0.4050586462452657  0.4942567344934403  0.6215302229100601   F   F   F
  0.0960501387669268  0.9960034075660715  0.1235138196493821   F   F   F
  0.5940079312094966  0.9973888693467430  0.3735354137556328   F   F   F
  0.9056829491459126  0.4953935643539253  0.8755535665546290   F   F   F
  0.5940466326889791  0.5027444043629359  0.3733608890738367   F   F   F
  0.9056595872037789  0.0046264270214209  0.8755804782924201   F   F   F
  0.3235211054331515  0.0394013019014068  0.9647680237936882   F   F   F
  0.1756180629894999  0.5374345279888786  0.4652872393753356   F   F   F
  0.3235336788702554  0.4606790405103780  0.9647993898373528   F   F   F
  0.1754266512743925  0.9625400469777361  0.4652292971809970   F   F   F
  0.6782215512372716  0.9622067185394272  0.0334588593209943   F   F   F
  0.8237836134452152  0.4615868091194812  0.5352099473445904   F   F   F
  0.6780711611733494  0.5378053567495655  0.0349162948280792   F   F   F
  0.8238493049878386  0.0384170375190678  0.5351945646320146   F   F   F
  0.3185273680292795  0.9545493717500122  0.8084528888423677   F   F   F
  0.1786078986702435  0.4538076048119990  0.3065155543288469   F   F   F
  0.3183323503449884  0.5458119679295024  0.8089313053441884   F   F   F
  0.1786239398476823  0.0462267592944556  0.3066259419418813   F   F   F
  0.6820013519468162  0.0465699311238339  0.1921119024465554   F   F   F
  0.8214144135242520  0.5454915428088256  0.6932714081365319   F   F   F
  0.6819586530624449  0.4534452327976624  0.1921742266583024   F   F   F
  0.8213240119727985  0.9545336988895059  0.6932490653799874   F   F   F
  0.2577300385967263  0.0712151193591950  0.8008806917575768   F   F   F
  0.2442054367478050  0.5683368703561058  0.3043538916051887   F   F   F
  0.2577191747787495  0.4288522631963474  0.8009366206518678   F   F   F
  0.2463383126627647  0.9321239716908991  0.3048844784402860   F   F   F
  0.7434768871120099  0.9291502699885470  0.2003856370053896   F   F   F
  0.7561592371919161  0.4303497896917960  0.6971029160035798   F   F   F
  0.7426130491693641  0.5705067506457482  0.1994198242860037   F   F   F
  0.7561903675890775  0.0697459924549122  0.6970409788473901   F   F   F
  0.2918026443697599  0.1258079261735006  0.1067963653071473   F   F   F
  0.2085555362389897  0.6251406821244245  0.6069926068756075   F   F   F
  0.2918261136447882  0.3742766233393411  0.1068324422843716   F   F   F
  0.2080297757995879  0.8750114328305898  0.6069633709979669   F   F   F
  0.7092130158360703  0.8736098010964071  0.8950347078574126   F   F   F
  0.7912532446892442  0.3754796530182176  0.3929801966743725   F   F   F
  0.7092504192044302  0.6265640466138365  0.8951515970124930   F   F   F
  0.7912741441690585  0.1245213091666670  0.3929766754486721   F   F   F
  0.1999472134242524  0.0448986232559676  0.0271416060308454   F   F   F
  0.2989753176193872  0.5415383176022814  0.5292666542455251   F   F   F
  0.1999804522011601  0.4552219822723913  0.0272602871076728   F   F   F
  0.2988342780529791  0.9583844082169790  0.5296275779145319   F   F   F
  0.8012655823653674  0.9555448952027206  0.9711515610572761   F   F   F
  0.7008219671358233  0.4591811110342405  0.4690381188261199   F   F   F
  0.8012938275532946  0.5445260378419476  0.9709889062156805   F   F   F
  0.7008800732290226  0.0408491033289380  0.4691438708107398   F   F   F
  0.2947291887375840  0.9955544121297493  0.1491354272482610   F   F   F
  0.2040696743860266  0.4948558576368853  0.6475120168087685   F   F   F
  0.2935866789015691  0.5046864084273253  0.1470291108917152   F   F   F
  0.2040441988506743  0.0052439020459971  0.6474578734085128   F   F   F
  0.7071124383613636  0.0028392740661118  0.8521277571796944   F   F   F
  0.7971303246840407  0.5056337467205054  0.3532314118686415   F   F   F
  0.7069775764302619  0.4974163601146984  0.8519761676685391   F   F   F
  0.7971278123090002  0.9943634884681458  0.3532314846451072   F   F   F
  0.1086701585645571  0.1280741946255546  0.0975328538727638   F   F   F
  0.3891958523051002  0.6256534686906932  0.6016246788076600   F   F   F
  0.1087477464161637  0.3719944087173346  0.0976850189479990   F   F   F
  0.3882956930606625  0.8744072825877254  0.6022896189950160   F   F   F
  0.8929839297644264  0.8724269328560581  0.9012197273660760   F   F   F
  0.6104018451768169  0.3721363392326253  0.4053239396652444   F   F   F
  0.8930887974255555  0.6276141028285736  0.9010143957161034   F   F   F
  0.6104417825862996  0.1278500429254379  0.4053218263038474   F   F   F
  0.0807734370939954  0.0483032403584929  0.9452477260277163   F   F   F
  0.4172138521357027  0.5503572703176758  0.4450795356931181   F   F   F
  0.0808185471576763  0.4516975652555075  0.9453131519252196   F   F   F
  0.4154350579514272  0.9492043263058463  0.4439329572207811   F   F   F
  0.9199524510283652  0.9518187973140186  0.0541401326310762   F   F   F
  0.5830814480259718  0.4549093313654353  0.5549128449597092   F   F   F
  0.9199212379819528  0.5482574728725140  0.0541149986303822   F   F   F
  0.5831228156042272  0.0451464834213269  0.5549966504428596   F   F   F
  0.1303114809476682  0.0807154991343424  0.7670226905429871   F   F   F
  0.3706670917429946  0.5783538137990121  0.2620817112059868   F   F   F
  0.1302881717641142  0.4194516986916810  0.7670290975606235   F   F   F
  0.3739825468280387  0.9161703584094170  0.2578446198793216   F   F   F
  0.8701595760413738  0.9189852154441738  0.2322032985087574   F   F   F
  0.6288756656036654  0.4252149893320478  0.7357356816213851   F   F   F
  0.8701508338934900  0.5810218374011313  0.2322076613055799   F   F   F
  0.6288936256385966  0.0748392504498838  0.7358029685320986   F   F   F
  0.0773192528127495  0.9608807951823763  0.7943707786074299   F   F   F
  0.4275200467393532  0.4615609395028955  0.2972658848981098   F   F   F
  0.0770267045160509  0.5394566850468721  0.7945463687323766   F   F   F
  0.4274623327397435  0.0385276249840274  0.2972016585412760   F   F   F
  0.9218028690069318  0.0394959516101281  0.2053045552028863   F   F   F
  0.5682706635752268  0.5421299651585372  0.7043667853767843   F   F   F
  0.9217617668736366  0.4605084408155591  0.2052318574095011   F   F   F
  0.5683877117099314  0.9574570403601470  0.7049542489964296   F   F   F
  0.2140483791176209  0.1396588507760299  0.6476179914056956   F   F   F
  0.2822586029948368  0.6382968033676661  0.1491093650140130   F   F   F
  0.2140557210209764  0.3604587401518557  0.6476383823308254   F   F   F
  0.2834055951800210  0.8611215527050931  0.1466744766242414   F   F   F
  0.7863049962097364  0.8601651198632894  0.3518892825403768   F   F   F
  0.7123587992555329  0.3628369358615799  0.8520376717829521   F   F   F
  0.7862732268956378  0.6398332644664819  0.3518808652360974   F   F   F
  0.7123388029321944  0.1374034236275961  0.8518829018355945   F   F   F
  0.4995121006005974  0.8456153132963848  0.7066371276841039   F   F   F
  0.0028288038109281  0.3558961257219622  0.2142594428784221   F   F   F
  0.4982080078468343  0.6545758884411441  0.7073065485438335   F   F   F
  0.0028229971393401  0.1441421427197795  0.2142598869098009   F   F   F
  0.5033529947031496  0.1470155195142624  0.2906108599047315   F   F   F
  0.9988514549625336  0.6462333220820256  0.7840259730912820   F   F   F
  0.5033366433387627  0.3529824666492871  0.2906014649437694   F   F   F
  0.9988500309416679  0.8540694227265178  0.7843302120182472   F   F   F
  0.3835733042999152  0.8387340843438267  0.7957730427501133   F   F   F
  0.1198337466424348  0.3348999321217079  0.2890771359474797   F   F   F
  0.3830603781835009  0.6609802869468169  0.7960073972104169   F   F   F
  0.1198773635622601  0.1651020467818540  0.2889453652702301   F   F   F
  0.6200013696644291  0.1635879438029804  0.2129112530053945   F   F   F
  0.8813377997980822  0.6641158658221187  0.7095232659055597   F   F   F
  0.6199941015139743  0.3363985462862971  0.2129218146063749   F   F   F
  0.8813885838864692  0.8360387771859550  0.7096220728919036   F   F   F
  0.4151492944677884  0.7485937986508162  0.6521164601554119   F   F   F
  0.0728916250986487  0.2500219477076655  0.1527384108185714   F   F   F
  0.5775769937277815  0.2499911476483092  0.3505971653563833   F   F   F
  0.9262285358026503  0.7500804912453987  0.8460044933540374   F   F   F
  0.3156952221072657  0.8672187432877791  0.9572432774194155   F   F   F
  0.1828627501077733  0.3674513296048261  0.4556845427901592   F   F   F
  0.3157274060544282  0.6333178962894479  0.9578021210659742   F   F   F
  0.1828751154451780  0.1327103075486562  0.4556594843890025   F   F   F
  0.6825392693621524  0.1351271687794977  0.0447132959264991   F   F   F
  0.8170780332866485  0.6318096877646795  0.5440006838948577   F   F   F
  0.6825328578989982  0.3649442790542068  0.0447631787183127   F   F   F
  0.8171272077369878  0.8681638962693086  0.5440096494444688   F   F   F
  0.2533896053080440  0.8398049563851089  0.7869033643040382   F   F   F
  0.2501716274064023  0.3425288622723457  0.2900284312903381   F   F   F
  0.2535028039516405  0.6602315745653584  0.7881754415196838   F   F   F
  0.2502265706462694  0.1574855251960372  0.2900383464422731   F   F   F
  0.7505811918265763  0.1593212345099744  0.2099419278146399   F   F   F
  0.7509271475727246  0.6570062586898047  0.7107032158761868   F   F   F
  0.7505784352226854  0.3407012918105750  0.2099504926721565   F   F   F
  0.7509348599909558  0.8429853188177248  0.7106799899741247   F   F   F
  0.2957365735739970  0.7502181013393141  0.0451866068836395   F   F   F
  0.2022306613424192  0.2500757930892874  0.5427846367398104   F   F   F
  0.7051782305896666  0.2500589224745298  0.9513539390382775   F   F   F
  0.8014995654385402  0.7499956900529199  0.4572254521981165   F   F   F
  0.1949268418232819  0.8326700328343932  0.0080092937839851   F   F   F
  0.3032835738035615  0.3324159100768824  0.5082364876589978   F   F   F
  0.1949724392488719  0.6685794832833736  0.0091661042403430   F   F   F
  0.3032844830742789  0.1677166585579002  0.5083103050361828   F   F   F
  0.8035693142321421  0.1647513490380916  0.9887737732822757   F   F   F
  0.6981169718240920  0.6709181861663041  0.4918548394649562   F   F   F
  0.8035844757786066  0.3352873579909357  0.9888347216053290   F   F   F
  0.6989208404412963  0.8284302033639293  0.4910924814108810   F   F   F
  0.0914144552651663  0.7500788861801979  0.0256571020734881   F   F   F
  0.4062871099376011  0.2500391366212682  0.5245287152293869   F   F   F
  0.9046954615708955  0.2500015749705256  0.9753038549376356   F   F   F
  0.5927579997881054  0.7490857274126910  0.4737381611321112   F   F   F
  0.0790234482468435  0.8696602094217667  0.9370124534887125   F   F   F
  0.4189671721040042  0.3699166380907783  0.4392641898608218   F   F   F
  0.0797591768027033  0.6311298664615137  0.9369756717216831   F   F   F
  0.4189081927681997  0.1301845818559855  0.4391765511733681   F   F   F
  0.9190471654025458  0.1316629167875263  0.0636675119878376   F   F   F
  0.5828574783593297  0.6313040886953587  0.5604825146031445   F   F   F
  0.9190744708624550  0.3683162686192318  0.0636659894040790   F   F   F
  0.5834847375547128  0.8689049906098134  0.5598119668933990   F   F   F
  0.1258022471853835  0.8399528900196671  0.7541385822584701   F   F   F
  0.3775090307349984  0.3422595703715032  0.2525460708608520   F   F   F
  0.1258283629593038  0.6601104482848399  0.7529753130356056   F   F   F
  0.3775501291647103  0.1578650318510455  0.2523914044169686   F   F   F
  0.8773986813116466  0.1607968648939107  0.2499888987527186   F   F   F
  0.6240213663102239  0.6587817134417051  0.7488083552575731   F   F   F
  0.8774008019892108  0.3392078357017354  0.2499987054313522   F   F   F
  0.6233774544254942  0.8413509051742665  0.7482485928263856   F   F   F
  0.2006220939038030  0.7501062283538147  0.6642252768158343   F   F   F
  0.3013062695967506  0.2500436448832914  0.1692969184086550   F   F   F
  0.7993235032576536  0.2500029948934070  0.3357900664094871   F   F   F
  0.7013376860427840  0.7500419723915783  0.8317580429617877   F   F   F
  0.4240585722701269  0.0707835756468924  0.6891479851815348   F   F   F
  0.0756066311266679  0.5696193694099634  0.1901226323662542   F   F   F
  0.4240321044441941  0.4292400893358774  0.6891768733863941   F   F   F
  0.0753757303399496  0.9300703753730772  0.1907676219339507   F   F   F
  0.5761908572681165  0.9311333703180082  0.3100954437476346   F   F   F
  0.9249942301351979  0.4295863844357370  0.8095949109290004   F   F   F
  0.5762176730392952  0.5699836542455898  0.3087001489472954   F   F   F
  0.9249991680789691  0.0704159115462630  0.8095898215283768   F   F   F
  0.3221296738111761  0.0326833431344653  0.8439692394705531   F   F   F
  0.1778241849028319  0.5317681282149778  0.3443430891086479   F   F   F
  0.3221300852550044  0.4673753729213459  0.8440033004984642   F   F   F
  0.1779881394998597  0.9675735448200484  0.3449319450916732   F   F   F
  0.6791869351473778  0.9693178933032911  0.1553670415695336   F   F   F
  0.8221331513337589  0.4673630876243848  0.6561068865330313   F   F   F
  0.6785280157570099  0.5316221022572734  0.1557844206176995   F   F   F
  0.8221389742717520  0.0326470794569929  0.6560938397509588   F   F   F
  0.2766674781206717  0.0515632293207133  0.0616508586056668   F   F   F
  0.2222310690581395  0.5498159656293140  0.5623822814412094   F   F   F
  0.2767106032086417  0.4485397980961423  0.0617181850963462   F   F   F
  0.2223247925962539  0.9504842768533592  0.5619346297951040   F   F   F
  0.7243524570651090  0.9483899155693010  0.9381574287031853   F   F   F
  0.7777910574464073  0.4502877302419250  0.4371712941896746   F   F   F
  0.7243664841072999  0.5517421601329104  0.9381286693088740   F   F   F
  0.7778351763428191  0.0497142748103485  0.4371833541173515   F   F   F
  0.1216863357306792  0.0542439801395176  0.0487591620511836   F   F   F
  0.3770732668859011  0.5531220857535573  0.5491252302910823   F   F   F
  0.1217231472702238  0.4458161326332615  0.0488642005116589   F   F   F
  0.3770524655418299  0.9462701424635327  0.5494548481425028   F   F   F
  0.8796261168907691  0.9461325272071335  0.9501210771954476   F   F   F
  0.6225363906934049  0.4470983089445397  0.4505667001174842   F   F   F
  0.8796626498068960  0.5539408025387402  0.9500087037173515   F   F   F
  0.6225970889912773  0.0529152588231341  0.4506676145070685   F   F   F
  0.0731291652980772  0.0397280307930359  0.8250492800862688   F   F   F
  0.4277127657423492  0.5422615744708494  0.3243982168579649   F   F   F
  0.0730724893376760  0.4603591275026560  0.8251317804183813   F   F   F
  0.4280449255558878  0.9595516557631356  0.3260723766453495   F   F   F
  0.9271320284998410  0.9605732676633849  0.1743537462629945   F   F   F
  0.5711363523631903  0.4628214796971122  0.6742238819746333   F   F   F
  0.9271187310459936  0.5394336174907082  0.1743387169526613   F   F   F
  0.5711646253096418  0.0372123300978586  0.6743009740405128   F   F   F
  0.2016606151922034  0.0731780382261462  0.7145554859468604   F   F   F
  0.2986532659407573  0.5722662514291983  0.2144201507857275   F   F   F
  0.2016507193109476  0.4269281662220550  0.7146021156340225   F   F   F
  0.2979342613009521  0.9299202949968759  0.2141155822715533   F   F   F
  0.7989761109359321  0.9268026055384908  0.2852088137398781   F   F   F
  0.7012303948287339  0.4296027688174959  0.7852342345565191   F   F   F
  0.7989694640147036  0.5731963721488356  0.2852091614225927   F   F   F
  0.7012843355630878  0.0705640024606708  0.7851994744181852   F   F   F
  0.4220211595348644  0.8283986089242177  0.6873565676728788   F   F   F
  0.0758788959604288  0.3283070585508412  0.1878667151190214   F   F   F
  0.4226591514457638  0.6718362531883599  0.6890652741989527   F   F   F
  0.0758654193335957  0.1717216243068904  0.1878045398691199   F   F   F
  0.5775215717806148  0.1718077218308451  0.3153713201385600   F   F   F
  0.9251531518168790  0.6718306276407446  0.8107626175247660   F   F   F
  0.5775025096244590  0.3281717354459772  0.3153673958464509   F   F   F
  0.9251621629395288  0.8283757996128145  0.8109222429929233   F   F   F
  0.3179954098121840  0.8746269901840762  0.8352934147004305   F   F   F
  0.1828528148068074  0.3745222082372734  0.3347541130683211   F   F   F
  0.3173976020403657  0.6243976871397479  0.8356559165479638   F   F   F
  0.1828801155478885  0.1255219244761037  0.3347411946177914   F   F   F
  0.6836652384185626  0.1262601686034159  0.1653907579724532   F   F   F
  0.8178486307799204  0.6248216735768608  0.6649629659280833   F   F   F
  0.6836504306359927  0.3737583667186968  0.1654353811039897   F   F   F
  0.8178522808032582  0.8751892406335458  0.6649623978253061   F   F   F
  0.2707463232797025  0.8284930615040054  0.0387678978767312   F   F   F
  0.2261443743138400  0.3275969317296088  0.5389831885180527   F   F   F
  0.2710423321445745  0.6722370775041071  0.0425622324506776   F   F   F
  0.2261426468382552  0.1725586715516627  0.5389906405368166   F   F   F
  0.7263890467676219  0.1718938534361314  0.9589531489063745   F   F   F
  0.7753812132934499  0.6731167486959322  0.4604835289771145   F   F   F
  0.7264084473280690  0.3282168205838545  0.9590037351413940   F   F   F
  0.7754067818177575  0.8268807645387355  0.4604974337649566   F   F   F
  0.1147461818232642  0.8276057756576307  0.0266905849817149   F   F   F
  0.3820134071125807  0.3279315837152481  0.5268972807119496   F   F   F
  0.1158084606087542  0.6722279600802281  0.0267792906148472   F   F   F
  0.3820224335284550  0.1721425188600563  0.5268922827265072   F   F   F
  0.8825017583109229  0.1716008886716622  0.9735837041484317   F   F   F
  0.6200206020745043  0.6722168365757568  0.4725272344770275   F   F   F
  0.8825046637598675  0.3284050090943396  0.9735892986267771   F   F   F
  0.6189795890830823  0.8277060141930690  0.4723781046137887   F   F   F
  0.0706268351482677  0.8811901273991012  0.8183277977325076   F   F   F
  0.4313796386280728  0.3817257265524674  0.3201480338932399   F   F   F
  0.0701668162724687  0.6189137893577552  0.8183782342406687   F   F   F
  0.4313445288811337  0.1183696062053201  0.3200794166744885   F   F   F
  0.9298820881379797  0.1192231772497294  0.1828380652990447   F   F   F
  0.5695346692646268  0.6219256906155621  0.6803927768237372   F   F   F
  0.9298779704907645  0.3807775899375301  0.1828334842037975   F   F   F
  0.5690797202195697  0.8784337854835940  0.6818800185136311   F   F   F
  0.1969224415289688  0.8274820599672879  0.7033119594922823   F   F   F
  0.3054107400279733  0.3279737945795560  0.2048060146959259   F   F   F
  0.1965778660194388  0.6720089751126039  0.7022204526117974   F   F   F
  0.3054100406985896  0.1721098879818186  0.2047647328787079   F   F   F
  0.8047219830494257  0.1727425953055430  0.2971895674775027   F   F   F
  0.6963049286335448  0.6722422908526369  0.7964584268199033   F   F   F
  0.8047213309910006  0.3272637652720576  0.2971897704100996   F   F   F
  0.6962916210407712  0.8278388218384620  0.7964494237635122   F   F   F
  0.4559714091054374  0.7330465460234095  0.4138379160202916   F   F   F
  0.4141838952800825  0.7963287024739074  0.2157830041927369   F   F   F
  0.3508299185083104  0.7489545838778184  0.3484424882898409   F   F   F
  0.4808998356309715  0.7604264647877841  0.2938444033402590   T   T   T
  0.4539812138265162  0.7204555195236182  0.1552877671700088   T   T   T
  0.4567632477693593  0.6679808167346977  0.1795438754418512   T   T   T
  0.4850131042100259  0.7325946458611838  0.0873383609229947   T   T   T
 
  0.00000000E+00  0.00000000E+00  0.00000000E+00
  0.00000000E+00  0.00000000E+00  0.00000000E+00
  0.00000000E+00  0.00000000E+00  0.00000000E+00
  0.00000000E+00  0.00000000E+00  0.00000000E+00
  0.00000000E+00  0.00000000E+00  0.00000000E+00
  0.00000000E+00  0.00000000E+00  0.00000000E+00
  0.00000000E+00  0.00000000E+00  0.00000000E+00
  0.00000000E+00  0.00000000E+00  0.00000000E+00
  0.00000000E+00  0.00000000E+00  0.00000000E+00
  0.00000000E+00  0.00000000E+00  0.00000000E+00
  0.00000000E+00  0.00000000E+00  0.00000000E+00
  0.00000000E+00  0.00000000E+00  0.00000000E+00
  0.00000000E+00  0.00000000E+00  0.00000000E+00
  0.00000000E+00  0.00000000E+00  0.00000000E+00
  0.00000000E+00  0.00000000E+00  0.00000000E+00
  0.00000000E+00  0.00000000E+00  0.00000000E+00
  0.00000000E+00  0.00000000E+00  0.00000000E+00
  0.00000000E+00  0.00000000E+00  0.00000000E+00
  0.00000000E+00  0.00000000E+00  0.00000000E+00
  0.00000000E+00  0.00000000E+00  0.00000000E+00
  0.00000000E+00  0.00000000E+00  0.00000000E+00
  0.00000000E+00  0.00000000E+00  0.00000000E+00
  0.00000000E+00  0.00000000E+00  0.00000000E+00
  0.00000000E+00  0.00000000E+00  0.00000000E+00
  0.00000000E+00  0.00000000E+00  0.00000000E+00
  0.00000000E+00  0.00000000E+00  0.00000000E+00
  0.00000000E+00  0.00000000E+00  0.00000000E+00
  0.00000000E+00  0.00000000E+00  0.00000000E+00
  0.00000000E+00  0.00000000E+00  0.00000000E+00
  0.00000000E+00  0.00000000E+00  0.00000000E+00
  0.00000000E+00  0.00000000E+00  0.00000000E+00
  0.00000000E+00  0.00000000E+00  0.00000000E+00
  0.00000000E+00  0.00000000E+00  0.00000000E+00
  0.00000000E+00  0.00000000E+00  0.00000000E+00
  0.00000000E+00  0.00000000E+00  0.00000000E+00
  0.00000000E+00  0.00000000E+00  0.00000000E+00
  0.00000000E+00  0.00000000E+00  0.00000000E+00
  0.00000000E+00  0.00000000E+00  0.00000000E+00
  0.00000000E+00  0.00000000E+00  0.00000000E+00
  0.00000000E+00  0.00000000E+00  0.00000000E+00
  0.00000000E+00  0.00000000E+00  0.00000000E+00
  0.00000000E+00  0.00000000E+00  0.00000000E+00
  0.00000000E+00  0.00000000E+00  0.00000000E+00
  0.00000000E+00  0.00000000E+00  0.00000000E+00
  0.00000000E+00  0.00000000E+00  0.00000000E+00
  0.00000000E+00  0.00000000E+00  0.00000000E+00
  0.00000000E+00  0.00000000E+00  0.00000000E+00
  0.00000000E+00  0.00000000E+00  0.00000000E+00
  0.00000000E+00  0.00000000E+00  0.00000000E+00
  0.00000000E+00  0.00000000E+00  0.00000000E+00
  0.00000000E+00  0.00000000E+00  0.00000000E+00
  0.00000000E+00  0.00000000E+00  0.00000000E+00
  0.00000000E+00  0.00000000E+00  0.00000000E+00
  0.00000000E+00  0.00000000E+00  0.00000000E+00
  0.00000000E+00  0.00000000E+00  0.00000000E+00
  0.00000000E+00  0.00000000E+00  0.00000000E+00
  0.00000000E+00  0.00000000E+00  0.00000000E+00
  0.00000000E+00  0.00000000E+00  0.00000000E+00
  0.00000000E+00  0.00000000E+00  0.00000000E+00
  0.00000000E+00  0.00000000E+00  0.00000000E+00
  0.00000000E+00  0.00000000E+00  0.00000000E+00
  0.00000000E+00  0.00000000E+00  0.00000000E+00
  0.00000000E+00  0.00000000E+00  0.00000000E+00
  0.00000000E+00  0.00000000E+00  0.00000000E+00
  0.00000000E+00  0.00000000E+00  0.00000000E+00
  0.00000000E+00  0.00000000E+00  0.00000000E+00
  0.00000000E+00  0.00000000E+00  0.00000000E+00
  0.00000000E+00  0.00000000E+00  0.00000000E+00
  0.00000000E+00  0.00000000E+00  0.00000000E+00
  0.00000000E+00  0.00000000E+00  0.00000000E+00
  0.00000000E+00  0.00000000E+00  0.00000000E+00
  0.00000000E+00  0.00000000E+00  0.00000000E+00
  0.00000000E+00  0.00000000E+00  0.00000000E+00
  0.00000000E+00  0.00000000E+00  0.00000000E+00
  0.00000000E+00  0.00000000E+00  0.00000000E+00
  0.00000000E+00  0.00000000E+00  0.00000000E+00
  0.00000000E+00  0.00000000E+00  0.00000000E+00
  0.00000000E+00  0.00000000E+00  0.00000000E+00
  0.00000000E+00  0.00000000E+00  0.00000000E+00
  0.00000000E+00  0.00000000E+00  0.00000000E+00
  0.00000000E+00  0.00000000E+00  0.00000000E+00
  0.00000000E+00  0.00000000E+00  0.00000000E+00
  0.00000000E+00  0.00000000E+00  0.00000000E+00
  0.00000000E+00  0.00000000E+00  0.00000000E+00
  0.00000000E+00  0.00000000E+00  0.00000000E+00
  0.00000000E+00  0.00000000E+00  0.00000000E+00
  0.00000000E+00  0.00000000E+00  0.00000000E+00
  0.00000000E+00  0.00000000E+00  0.00000000E+00
  0.00000000E+00  0.00000000E+00  0.00000000E+00
  0.00000000E+00  0.00000000E+00  0.00000000E+00
  0.00000000E+00  0.00000000E+00  0.00000000E+00
  0.00000000E+00  0.00000000E+00  0.00000000E+00
  0.00000000E+00  0.00000000E+00  0.00000000E+00
  0.00000000E+00  0.00000000E+00  0.00000000E+00
  0.00000000E+00  0.00000000E+00  0.00000000E+00
  0.00000000E+00  0.00000000E+00  0.00000000E+00
  0.00000000E+00  0.00000000E+00  0.00000000E+00
  0.00000000E+00  0.00000000E+00  0.00000000E+00
  0.00000000E+00  0.00000000E+00  0.00000000E+00
  0.00000000E+00  0.00000000E+00  0.00000000E+00
  0.00000000E+00  0.00000000E+00  0.00000000E+00
  0.00000000E+00  0.00000000E+00  0.00000000E+00
  0.00000000E+00  0.00000000E+00  0.00000000E+00
  0.00000000E+00  0.00000000E+00  0.00000000E+00
  0.00000000E+00  0.00000000E+00  0.00000000E+00
  0.00000000E+00  0.00000000E+00  0.00000000E+00
  0.00000000E+00  0.00000000E+00  0.00000000E+00
  0.00000000E+00  0.00000000E+00  0.00000000E+00
  0.00000000E+00  0.00000000E+00  0.00000000E+00
  0.00000000E+00  0.00000000E+00  0.00000000E+00
  0.00000000E+00  0.00000000E+00  0.00000000E+00
  0.00000000E+00  0.00000000E+00  0.00000000E+00
  0.00000000E+00  0.00000000E+00  0.00000000E+00
  0.00000000E+00  0.00000000E+00  0.00000000E+00
  0.00000000E+00  0.00000000E+00  0.00000000E+00
  0.00000000E+00  0.00000000E+00  0.00000000E+00
  0.00000000E+00  0.00000000E+00  0.00000000E+00
  0.00000000E+00  0.00000000E+00  0.00000000E+00
  0.00000000E+00  0.00000000E+00  0.00000000E+00
  0.00000000E+00  0.00000000E+00  0.00000000E+00
  0.00000000E+00  0.00000000E+00  0.00000000E+00
  0.00000000E+00  0.00000000E+00  0.00000000E+00
  0.00000000E+00  0.00000000E+00  0.00000000E+00
  0.00000000E+00  0.00000000E+00  0.00000000E+00
  0.00000000E+00  0.00000000E+00  0.00000000E+00
  0.00000000E+00  0.00000000E+00  0.00000000E+00
  0.00000000E+00  0.00000000E+00  0.00000000E+00
  0.00000000E+00  0.00000000E+00  0.00000000E+00
  0.00000000E+00  0.00000000E+00  0.00000000E+00
  0.00000000E+00  0.00000000E+00  0.00000000E+00
  0.00000000E+00  0.00000000E+00  0.00000000E+00
  0.00000000E+00  0.00000000E+00  0.00000000E+00
  0.00000000E+00  0.00000000E+00  0.00000000E+00
  0.00000000E+00  0.00000000E+00  0.00000000E+00
  0.00000000E+00  0.00000000E+00  0.00000000E+00
  0.00000000E+00  0.00000000E+00  0.00000000E+00
  0.00000000E+00  0.00000000E+00  0.00000000E+00
  0.00000000E+00  0.00000000E+00  0.00000000E+00
  0.00000000E+00  0.00000000E+00  0.00000000E+00
  0.00000000E+00  0.00000000E+00  0.00000000E+00
  0.00000000E+00  0.00000000E+00  0.00000000E+00
  0.00000000E+00  0.00000000E+00  0.00000000E+00
  0.00000000E+00  0.00000000E+00  0.00000000E+00
  0.00000000E+00  0.00000000E+00  0.00000000E+00
  0.00000000E+00  0.00000000E+00  0.00000000E+00
  0.00000000E+00  0.00000000E+00  0.00000000E+00
  0.00000000E+00  0.00000000E+00  0.00000000E+00
  0.00000000E+00  0.00000000E+00  0.00000000E+00
  0.00000000E+00  0.00000000E+00  0.00000000E+00
  0.00000000E+00  0.00000000E+00  0.00000000E+00
  0.00000000E+00  0.00000000E+00  0.00000000E+00
  0.00000000E+00  0.00000000E+00  0.00000000E+00
  0.00000000E+00  0.00000000E+00  0.00000000E+00
  0.00000000E+00  0.00000000E+00  0.00000000E+00
  0.00000000E+00  0.00000000E+00  0.00000000E+00
  0.00000000E+00  0.00000000E+00  0.00000000E+00
  0.00000000E+00  0.00000000E+00  0.00000000E+00
  0.00000000E+00  0.00000000E+00  0.00000000E+00
  0.00000000E+00  0.00000000E+00  0.00000000E+00
  0.00000000E+00  0.00000000E+00  0.00000000E+00
  0.00000000E+00  0.00000000E+00  0.00000000E+00
  0.00000000E+00  0.00000000E+00  0.00000000E+00
  0.00000000E+00  0.00000000E+00  0.00000000E+00
  0.00000000E+00  0.00000000E+00  0.00000000E+00
  0.00000000E+00  0.00000000E+00  0.00000000E+00