O  Si Ru C  H                           
   1.00000000000000     
    20.3096463179830877    0.0000000000000000    0.0000000000000000
     0.0000000000000000   19.8625212307842212    0.0000000000000000
     0.0000000000000000    0.0000000000000000   13.3711533343531652
   O    Si   Ru   C    H 
   192    96     2     2     3
Selective dynamics
Direct
  0.5029151419623901  0.0735660596726220  0.7069316305773725   F   F   F
  0.9975465120921569  0.5722056013321435  0.2087406600889281   F   F   F
  0.5029625376940245  0.4265088223227380  0.7071140439527213   F   F   F
  0.9973945789310514  0.9278121026804821  0.2090066788249309   T   T   T
  0.4976127704038482  0.9276107897904328  0.2912639262678367   T   T   T
  0.0032184386695491  0.4269330484855089  0.7921409749159594   F   F   F
  0.4977203592960961  0.5720242044357065  0.2903984015411680   F   F   F
  0.0031941412613889  0.0729668753257329  0.7917158063303020   F   F   F
  0.3878579723645430  0.0669556667519231  0.7965548156122182   F   F   F
  0.1133759987999525  0.5681642766849038  0.2964373645987877   F   F   F
  0.3878584358486918  0.4330437684886519  0.7965742164748164   F   F   F
  0.1131723125637335  0.9320468460556679  0.2968053570941606   T   T   T
  0.6120694557272978  0.9329137331498589  0.2012598214740014   T   T   T
  0.8876973671888919  0.4327342034956771  0.7036508835393036   F   F   F
  0.6135821534334056  0.5682784344751042  0.2033449439821382   F   F   F
  0.8876117469000917  0.0673661435016157  0.7035018781795443   F   F   F
  0.4009161058478412  0.1389419031021148  0.6318180153029829   F   F   F
  0.0975055983883398  0.6394427160293824  0.1314575074352495   T   T   T
  0.4010424696537882  0.3610528181545121  0.6318133081225312   F   F   F
  0.0976282600630956  0.8605163019864750  0.1323899413551768   T   T   T
  0.6002791651220984  0.8609617885607537  0.3656567341773984   T   T   T
  0.9019278058779037  0.3610410398314983  0.8685731531220142   F   F   F
  0.5963482134644406  0.6394472463814936  0.3690276588561325   T   T   T
  0.9020589687179950  0.1389418631131747  0.8685141393728202   F   F   F
  0.4059805669348791  0.0047442563955897  0.6216751015979938   F   F   F
  0.0951764573732916  0.5048736608876467  0.1227496371721131   F   F   F
  0.4060063268505516  0.4952757309538711  0.6217644002593659   F   F   F
  0.0951507299819635  0.9950185473270283  0.1225295206350654   T   T   T
  0.5948703883908159  0.9956443432060338  0.3758118956451506   T   T   T
  0.9063174878259801  0.4953848205285425  0.8779651251188270   F   F   F
  0.5950752590078494  0.5043549968709016  0.3761727772273389   F   F   F
  0.9063218528932850  0.0045785558899212  0.8776992153014049   F   F   F
  0.3240114434950669  0.0382407076679172  0.9638230470655600   F   F   F
  0.1763485455368254  0.5378781522500660  0.4641542393044347   F   F   F
  0.3240639192643968  0.4618354887910741  0.9638665486159397   F   F   F
  0.1762086886970315  0.9616571073480987  0.4643828456158304   T   T   T
  0.6777454818435944  0.9617003554264743  0.0362181775510186   T   T   T
  0.8239264782183469  0.4615726959520288  0.5363529546552854   F   F   F
  0.6766273407468262  0.5380862158563389  0.0360413412402991   F   F   F
  0.8238113343158346  0.0383815205381524  0.5362542402135873   F   F   F
  0.3215517775372111  0.9533701881048379  0.8073766443351176   T   T   T
  0.1776758631529702  0.4534601678782408  0.3068976961336460   F   F   F
  0.3217291042216033  0.5466230856040681  0.8071625387420625   F   F   F
  0.1777392319065001  0.0465284403162727  0.3069405612850815   F   F   F
  0.6782953929680886  0.0464276494116262  0.1929820249193881   F   F   F
  0.8214903320832505  0.5463853187552132  0.6930224919608605   F   F   F
  0.6783411531563246  0.4536225664016982  0.1930928964972622   F   F   F
  0.8217869713232047  0.9531992403366284  0.6913444219761872   T   T   T
  0.2563457342386215  0.0684226129951071  0.8017762481607349   F   F   F
  0.2448952522016867  0.5671912581414134  0.3029801725596926   F   F   F
  0.2563604704749665  0.4316428390570621  0.8018556833268136   F   F   F
  0.2447549290545858  0.9325117457716935  0.3033222216291427   T   T   T
  0.7434884107451963  0.9309918616887982  0.2005128569389548   T   T   T
  0.7562410131176875  0.4314383528184749  0.6983979119208144   F   F   F
  0.7450790913829763  0.5677876932779427  0.1974180494790900   F   F   F
  0.7561874466482195  0.0686029683221889  0.6982838657223311   F   F   F
  0.2923457530791964  0.1261305060343005  0.1042687178754136   F   F   F
  0.2086172616247580  0.6261936896720830  0.6039192157051868   T   T   T
  0.2924222850649301  0.3739550916486252  0.1043750301760937   F   F   F
  0.2091947364019773  0.8738830905498055  0.6049100124812685   T   T   T
  0.7089409105104243  0.8738619318506304  0.8947405475159224   T   T   T
  0.7920626114484861  0.3741440791997874  0.3955590558159940   F   F   F
  0.7089421479530208  0.6260588502675163  0.8953187140828495   T   T   T
  0.7918328172678528  0.1258395964698522  0.3955348022627305   F   F   F
  0.2009180106485928  0.0428348962614322  0.0293984412057924   F   F   F
  0.2996968197579477  0.5426935160259490  0.5294112209858000   F   F   F
  0.2010372834083469  0.4573071122565651  0.0296181964629270   F   F   F
  0.2995981351051696  0.9573382928931208  0.5289820617760411   T   T   T
  0.8001895922086580  0.9572087692090653  0.9694124640165158   T   T   T
  0.7007908648720971  0.4573025797676209  0.4705712418615562   F   F   F
  0.7997060817570443  0.5420944581861136  0.9703302267615257   F   F   F
  0.7006462591275380  0.0424959606184885  0.4703037048025678   F   F   F
  0.2960356918020248  0.9961211216093995  0.1463160227282529   T   T   T
  0.2042062705839172  0.4967531181442908  0.6471179485467573   F   F   F
  0.2967512456497943  0.5034965594674716  0.1468170404423290   F   F   F
  0.2042827147657746  0.0033044922153636  0.6469642495983621   F   F   F
  0.7035695737600207  0.0031082455789999  0.8524917251822970   F   F   F
  0.7966009577419371  0.5038039927924629  0.3537093559489008   F   F   F
  0.7037483821235924  0.4970039567455018  0.8526551329040757   F   F   F
  0.7967518423522771  0.9953120901028103  0.3546131192599084   T   T   T
  0.1093131791865716  0.1272507473097590  0.0964945470806668   F   F   F
  0.3896462284861352  0.6267007634702751  0.6011916381405175   T   T   T
  0.1096159065423521  0.3727429065902896  0.0968433397711834   F   F   F
  0.3891963632980229  0.8736592962249548  0.6029700814598672   T   T   T
  0.8921773834303182  0.8725424848506513  0.9034551449009370   T   T   T
  0.6094185792695015  0.3723840888363128  0.4038542259655458   F   F   F
  0.8908785975360806  0.6273615168437771  0.9033890581581639   T   T   T
  0.6094041022901209  0.1276315479534134  0.4037605891893747   F   F   F
  0.0831048349475765  0.0475109685477975  0.9435687042287597   F   F   F
  0.4176871806418063  0.5499813561623768  0.4438436836473443   F   F   F
  0.0831856777148303  0.4523523729842580  0.9438997465468049   F   F   F
  0.4175361834082193  0.9502544126753736  0.4443860982446667   T   T   T
  0.9181653915169512  0.9517915984945468  0.0560225068678266   T   T   T
  0.5827906879946028  0.4530925389524398  0.5556375829759830   F   F   F
  0.9173413997613409  0.5488456328287370  0.0565855780411937   F   F   F
  0.5826187119468287  0.0467912904197689  0.5553540539617146   F   F   F
  0.1296231040844802  0.0799627804154994  0.7634423203244225   F   F   F
  0.3713805715389924  0.5807279038530382  0.2623249302738841   F   F   F
  0.1296318253701898  0.4200410798835748  0.7636759413020187   F   F   F
  0.3712133209517890  0.9200562780503662  0.2623479787286574   T   T   T
  0.8707433666125177  0.9197505190769324  0.2352113088116700   T   T   T
  0.6292993944101113  0.4207916246772925  0.7356744224965155   F   F   F
  0.8713626048482652  0.5804791718471378  0.2374900436238292   F   F   F
  0.6292492851724560  0.0793042870953116  0.7352598947508895   F   F   F
  0.0751380830496543  0.9607777685292692  0.7918962564893687   T   T   T
  0.4241131313273669  0.4613752091790673  0.2948144036777691   F   F   F
  0.0748028995871124  0.5391836990524368  0.7923195950701611   F   F   F
  0.4241964469789892  0.0386462131336458  0.2945780170194396   F   F   F
  0.9248077689555814  0.0391348004589247  0.2067119060627078   F   F   F
  0.5730250382433582  0.5395395133105296  0.7075292341394857   F   F   F
  0.9246677977408950  0.4608033835361240  0.2067758124953869   F   F   F
  0.5721644264642252  0.9600799533141851  0.7058254578503526   T   T   T
  0.2161824121332003  0.1373904738735874  0.6463271447778780   F   F   F
  0.2829997205676466  0.6378192231966038  0.1481750444365875   T   T   T
  0.2161517510064428  0.3626744318723070  0.6464343906898762   F   F   F
  0.2826430202164511  0.8620495342084047  0.1487527613830354   T   T   T
  0.7877393310391102  0.8601142245609952  0.3533388640967948   T   T   T
  0.7150253360603145  0.3628167424777686  0.8534947758407938   F   F   F
  0.7860468967800215  0.6385193612834577  0.3528558658618814   T   T   T
  0.7148261493384283  0.1372886464544649  0.8532633160024901   F   F   F
  0.4979228808563997  0.8500052152371581  0.7149342302576714   T   T   T
  0.0036584267006603  0.3545747407892605  0.2132407109572441   F   F   F
  0.4964108345229709  0.6487761657692381  0.7166569176987061   T   T   T
  0.0035385368081577  0.1455500153788094  0.2131493366729131   F   F   F
  0.5037287630216625  0.1445781717231256  0.2864470147087275   F   F   F
  0.9969297751837229  0.6460115294542150  0.7865642516830035   T   T   T
  0.5037707510527198  0.3555116669135501  0.2864961434610791   F   F   F
  0.9983762102025692  0.8528338727802252  0.7869882164206696   T   T   T
  0.3816222701379919  0.8348690255585026  0.7940893044742020   T   T   T
  0.1210268688035399  0.3338110613837486  0.2872208120334179   F   F   F
  0.3791771890945310  0.6661902836743206  0.7920011126149025   T   T   T
  0.1209586482013023  0.1660553506375635  0.2869694551628612   F   F   F
  0.6210864063625010  0.1658884040414250  0.2130439895052163   F   F   F
  0.8799353600334708  0.6656026749219645  0.7130782895929590   T   T   T
  0.6211110157533284  0.3341538800550268  0.2131485949028544   F   F   F
  0.8815955089480865  0.8348011868483471  0.7126245516360759   T   T   T
  0.4186466780736509  0.7501631191308529  0.6501295211552064   T   T   T
  0.0746191832608716  0.2500230315661014  0.1491574075772419   F   F   F
  0.5737535633323603  0.2500033269389590  0.3499372146450668   F   F   F
  0.9257092425463518  0.7498837135804324  0.8512604338647110   T   T   T
  0.3156639293423368  0.8667880948354078  0.9573826529968162   T   T   T
  0.1831382099758727  0.3656193254218110  0.4546788161282862   F   F   F
  0.3152920600465344  0.6332623447614643  0.9566214933031837   T   T   T
  0.1830710617180671  0.1345150281137819  0.4545914900688217   F   F   F
  0.6830517762348904  0.1344874634880142  0.0452736917138168   F   F   F
  0.8200440982675705  0.6361839798039303  0.5450425440856226   T   T   T
  0.6830854472072687  0.3655253709567745  0.0454288807432022   F   F   F
  0.8204014788690119  0.8620773573805917  0.5449691073774360   T   T   T
  0.2514540899169878  0.8416790449941417  0.7885400941935390   T   T   T
  0.2513284304882717  0.3439160443049900  0.2888596437238746   F   F   F
  0.2489814344663854  0.6565426009076608  0.7890204117321536   T   T   T
  0.2512496259875334  0.1561531436267387  0.2887659973841181   F   F   F
  0.7514064122389215  0.1563514770940770  0.2107774734307739   F   F   F
  0.7496913300266489  0.6567636271318218  0.7103973583489565   T   T   T
  0.7514333991542230  0.3437018738677295  0.2109204239965408   F   F   F
  0.7514168712156386  0.8420358169026455  0.7112303171097504   T   T   T
  0.2962017620202501  0.7499714551536693  0.0478035096642147   T   T   T
  0.2037513614112356  0.2500402232570522  0.5473130572547689   F   F   F
  0.7036288451255430  0.2500227799147439  0.9524367183681051   F   F   F
  0.7796580375364697  0.7491581612811304  0.4580821253737672   T   T   T
  0.1953083428796664  0.8309376003603555  0.0081518132576575   T   T   T
  0.3039760542072045  0.3321511197779401  0.5063204852821102   F   F   F
  0.1951458704925564  0.6690724846247166  0.0080494313158117   T   T   T
  0.3039535270350342  0.1678850199576374  0.5061614664230731   F   F   F
  0.8037674365760594  0.1675499430433049  0.9919476301601620   F   F   F
  0.6961999034717147  0.6474520886930024  0.4955759080297828   T   T   T
  0.8038193000716305  0.3323998958156906  0.9923103515000236   F   F   F
  0.6962410305670592  0.8501323695418329  0.4950552025535071   T   T   T
  0.0911608243894133  0.7502446745338244  0.0216927745558711   T   T   T
  0.4070684857934594  0.2499810289984339  0.5234879823940233   F   F   F
  0.9068306617426174  0.2499858845960929  0.9771434341541791   F   F   F
  0.6135970383510573  0.7493523056791646  0.4792476194877503   T   T   T
  0.0813822008373264  0.8707906791002954  0.9366446384373169   T   T   T
  0.4196731292247478  0.3690835510139365  0.4362494260570955   F   F   F
  0.0811449598189442  0.6302332164941583  0.9354178915490009   T   T   T
  0.4196318579545562  0.1308483549065897  0.4362280688829117   F   F   F
  0.9187871414795694  0.1307480475178480  0.0643944961597001   F   F   F
  0.5766553096092950  0.6334195891304270  0.5648477392136764   T   T   T
  0.9189813415853791  0.3691962182345989  0.0643979391319860   F   F   F
  0.5779064426184342  0.8674937205429676  0.5627838268788088   T   T   T
  0.1243054887309049  0.8406722236473723  0.7513665341147834   T   T   T
  0.3782191667140111  0.3406282260943811  0.2495822814269246   F   F   F
  0.1223924847796583  0.6595952857108859  0.7487682265025470   T   T   T
  0.3781398319688947  0.1593484212036174  0.2495850342034558   F   F   F
  0.8780772199561611  0.1597428608575626  0.2513021010905376   F   F   F
  0.6228061160414700  0.6588009396813139  0.7502943705163030   T   T   T
  0.8781527669198397  0.3400969411418018  0.2511874583142415   F   F   F
  0.6241446320634051  0.8414357541712030  0.7480077507665394   T   T   T
  0.2013197052348103  0.7498877408395849  0.6664941055378761   T   T   T
  0.2996637301077030  0.2500277610362360  0.1677077677577756   F   F   F
  0.7990848778479602  0.2499825440223233  0.3330224582314472   F   F   F
  0.7005697851691493  0.7498946930429139  0.8322183707836235   T   T   T
  0.4243120677247703  0.0706248793323780  0.6882720414480872   F   F   F
  0.0760515629478533  0.5707141827737630  0.1887833199971851   F   F   F
  0.4243642501694112  0.4293781953153299  0.6883255931551702   F   F   F
  0.0758940409447593  0.9294541711876672  0.1891220475451303   T   T   T
  0.5762223112237711  0.9292831427047626  0.3101279268180409   T   T   T
  0.9246233627582825  0.4294307430317730  0.8116017276557059   F   F   F
  0.5761242863364586  0.5706873103235637  0.3109170475815333   F   F   F
  0.9246201416023538  0.0705567486414296  0.8113905219130189   F   F   F
  0.3223819734165474  0.0318316953936488  0.8430151480515420   F   F   F
  0.1780452314772205  0.5317164602638726  0.3432883448099062   F   F   F
  0.3224146420772769  0.4682209026483264  0.8430421287326908   F   F   F
  0.1780189278378326  0.9682594415552515  0.3434595745400574   T   T   T
  0.6781609938919114  0.9679963037639252  0.1571738706418772   T   T   T
  0.8222945580976031  0.4680597921700667  0.6571628257407198   F   F   F
  0.6784011481407290  0.5319538700143198  0.1569513425766544   F   F   F
  0.8222309627981090  0.0319692201244450  0.6570775164942972   F   F   F
  0.2779123087333701  0.0511264612777964  0.0613109493893447   F   F   F
  0.2226568316635706  0.5510577151876532  0.5612541371714030   F   F   F
  0.2780423512307522  0.4489808195105951  0.0614569707557564   F   F   F
  0.2227604838264225  0.9489377633600958  0.5613398922950785   T   T   T
  0.7230565542209039  0.9488392109527840  0.9380635934668368   T   T   T
  0.7778141510926559  0.4491288428941544  0.4387963766751781   F   F   F
  0.7227333495790305  0.5509907875996660  0.9386600761461779   F   F   F
  0.7777079553616204  0.0507975122443085  0.4386758489674847   F   F   F
  0.1224574189986996  0.0532732866075847  0.0483851064646856   F   F   F
  0.3779769887972222  0.5535711134250292  0.5484128788570217   F   F   F
  0.1226107360804676  0.4467220309073738  0.0486672413644982   F   F   F
  0.3778450357941511  0.9464815053005875  0.5485939912021168   T   T   T
  0.8786442876812488  0.9464496615362332  0.9514544719502480   T   T   T
  0.6224157232441314  0.4466922016762993  0.4511188640456680   F   F   F
  0.8780396312731398  0.5534298767382921  0.9515768464672476   F   F   F
  0.6222660347702487  0.0532503084769687  0.4508426119537319   F   F   F
  0.0728412340832634  0.0397062233897643  0.8238019586723624   F   F   F
  0.4277437962122690  0.5407555480855848  0.3241855554615896   F   F   F
  0.0728651157205249  0.4602342044834629  0.8241694721060924   F   F   F
  0.4277409334900714  0.9591731219983125  0.3246134589509222   T   T   T
  0.9275512662490266  0.9601787308718083  0.1757826685779099   T   T   T
  0.5722872311394767  0.4606056157916711  0.6753226260991951   F   F   F
  0.9275541845522710  0.5399426299954300  0.1762338123948481   F   F   F
  0.5722002755176163  0.0394245703525797  0.6750904917086089   F   F   F
  0.2016626826565684  0.0714697559756701  0.7134550092025691   F   F   F
  0.2988993987442186  0.5712898499085739  0.2141871586954238   F   F   F
  0.2016336523030233  0.4285870286521600  0.7135974393340589   F   F   F
  0.2989160618173348  0.9285713015321437  0.2143921419216301   T   T   T
  0.7992505310376719  0.9273222232628827  0.2873152301237365   T   T   T
  0.7012003299792298  0.4288186369106910  0.7861858612953654   F   F   F
  0.7990674709343182  0.5717379632341064  0.2865965737987679   F   F   F
  0.7010838455696202  0.0712665571672204  0.7859514996808130   F   F   F
  0.4230966135832142  0.8286581374639291  0.6907866508293971   T   T   T
  0.0769156502417161  0.3279886870119242  0.1860147788485307   F   F   F
  0.4221668887440634  0.6715802353302890  0.6900565667855605   T   T   T
  0.0768112818279434  0.1720160537428654  0.1858265876985072   F   F   F
  0.5767129546629590  0.1718671486741741  0.3139569590465925   F   F   F
  0.9235641265705932  0.6720374324358259  0.8142882098790152   T   T   T
  0.5767212789286447  0.3281510196691713  0.3140415784961021   F   F   F
  0.9246210687904498  0.8277888117829100  0.8142932456368134   T   T   T
  0.3173606216590191  0.8743460056450117  0.8366257127166453   T   T   T
  0.1833074541364965  0.3740495101119237  0.3339202901998917   F   F   F
  0.3160506614085586  0.6256302600644097  0.8357983594525606   T   T   T
  0.1832639004326140  0.1259627486727979  0.3338573048679194   F   F   F
  0.6834029271010706  0.1259062829963540  0.1659798546337825   F   F   F
  0.8176376304868773  0.6259917739533388  0.6655473326744835   T   T   T
  0.6834285715484469  0.3741454557802228  0.1661310163765606   F   F   F
  0.8186353338866580  0.8733818819867902  0.6651424020336422   T   T   T
  0.2720386682312546  0.8275858660495886  0.0409455366782426   T   T   T
  0.2271237881017711  0.3276058948125495  0.5390136658916944   F   F   F
  0.2718942635421900  0.6725940432342180  0.0402346823229721   T   T   T
  0.2271202873219309  0.1724799435127480  0.5389173023724467   F   F   F
  0.7267472501634842  0.1723610876501098  0.9604303881170466   F   F   F
  0.7704137780373717  0.6686894152265498  0.4625276790319051   T   T   T
  0.7268216124557796  0.3276504608084423  0.9606404345553159   F   F   F
  0.7705177634872123  0.8298645839983162  0.4625102390978575   T   T   T
  0.1163279145720646  0.8279215793391073  0.0251451899958596   T   T   T
  0.3827581189327915  0.3278378273251619  0.5246491080329818   F   F   F
  0.1161040734410802  0.6725501519670247  0.0243928891680220   T   T   T
  0.3827275409154680  0.1721328363621524  0.5246189896410982   F   F   F
  0.8826748189633378  0.1720728385653771  0.9752648999179740   F   F   F
  0.6197764318853217  0.6685485174344138  0.4765944673249803   T   T   T
  0.8827059240094073  0.3279195982384806  0.9753863353167560   F   F   F
  0.6192113868411294  0.8304613874616509  0.4743434841469334   T   T   T
  0.0702260924321972  0.8811920727935119  0.8170438941122738   T   T   T
  0.4310362713513314  0.3815536136468793  0.3171561254436810   F   F   F
  0.0692860165732277  0.6189263652548520  0.8161657703715928   T   T   T
  0.4310160210270055  0.1184563301937942  0.3171106125946963   F   F   F
  0.9308107186515571  0.1189823214311971  0.1834600447849795   F   F   F
  0.5681777387195064  0.6197032797450515  0.6840288182225690   T   T   T
  0.9308747943928424  0.3809922836910218  0.1834914197417490   F   F   F
  0.5691607919562472  0.8800845040049530  0.6818574866719399   T   T   T
  0.1963846397924976  0.8275704792967076  0.7029751914540386   T   T   T
  0.3055343881691073  0.3279008594260304  0.2027792002935414   F   F   F
  0.1950734930432599  0.6721833677225368  0.7021951193417213   T   T   T
  0.3054784587058776  0.1721382358153463  0.2027155232773481   F   F   F
  0.8051754997750677  0.1721935395061607  0.2975943809345409   F   F   F
  0.6955445389838830  0.6720564085640127  0.7968629157039084   T   T   T
  0.8052597360911449  0.3277658206369907  0.2976066237846595   F   F   F
  0.6962099264369391  0.8277274190166144  0.7963290452031615   T   T   T
  0.3478096884492593  0.7363021830186551  0.3098264139649693   T   T   T
  0.4029732117268585  0.7576882613292307  0.4627928353051884   T   T   T
  0.4281281210595336  0.7523606554032236  0.2245377828668327   T   T   T
  0.4784283486913220  0.7824694787054020  0.4300674976481209   T   T   T
  0.4088190127495904  0.7615252163545415  0.1486443528349520   T   T   T
  0.4613221028838334  0.7928922489141887  0.2489421774409340   T   T   T
  0.4547677819052203  0.7038460863273922  0.2267130754582660   T   T   T
 
  0.00000000E+00  0.00000000E+00  0.00000000E+00
  0.00000000E+00  0.00000000E+00  0.00000000E+00
  0.00000000E+00  0.00000000E+00  0.00000000E+00
  0.00000000E+00  0.00000000E+00  0.00000000E+00
  0.00000000E+00  0.00000000E+00  0.00000000E+00
  0.00000000E+00  0.00000000E+00  0.00000000E+00
  0.00000000E+00  0.00000000E+00  0.00000000E+00
  0.00000000E+00  0.00000000E+00  0.00000000E+00
  0.00000000E+00  0.00000000E+00  0.00000000E+00
  0.00000000E+00  0.00000000E+00  0.00000000E+00
  0.00000000E+00  0.00000000E+00  0.00000000E+00
  0.00000000E+00  0.00000000E+00  0.00000000E+00
  0.00000000E+00  0.00000000E+00  0.00000000E+00
  0.00000000E+00  0.00000000E+00  0.00000000E+00
  0.00000000E+00  0.00000000E+00  0.00000000E+00
  0.00000000E+00  0.00000000E+00  0.00000000E+00
  0.00000000E+00  0.00000000E+00  0.00000000E+00
  0.00000000E+00  0.00000000E+00  0.00000000E+00
  0.00000000E+00  0.00000000E+00  0.00000000E+00
  0.00000000E+00  0.00000000E+00  0.00000000E+00
  0.00000000E+00  0.00000000E+00  0.00000000E+00
  0.00000000E+00  0.00000000E+00  0.00000000E+00
  0.00000000E+00  0.00000000E+00  0.00000000E+00
  0.00000000E+00  0.00000000E+00  0.00000000E+00
  0.00000000E+00  0.00000000E+00  0.00000000E+00
  0.00000000E+00  0.00000000E+00  0.00000000E+00
  0.00000000E+00  0.00000000E+00  0.00000000E+00
  0.00000000E+00  0.00000000E+00  0.00000000E+00
  0.00000000E+00  0.00000000E+00  0.00000000E+00
  0.00000000E+00  0.00000000E+00  0.00000000E+00
  0.00000000E+00  0.00000000E+00  0.00000000E+00
  0.00000000E+00  0.00000000E+00  0.00000000E+00
  0.00000000E+00  0.00000000E+00  0.00000000E+00
  0.00000000E+00  0.00000000E+00  0.00000000E+00
  0.00000000E+00  0.00000000E+00  0.00000000E+00
  0.00000000E+00  0.00000000E+00  0.00000000E+00
  0.00000000E+00  0.00000000E+00  0.00000000E+00
  0.00000000E+00  0.00000000E+00  0.00000000E+00
  0.00000000E+00  0.00000000E+00  0.00000000E+00
  0.00000000E+00  0.00000000E+00  0.00000000E+00
  0.00000000E+00  0.00000000E+00  0.00000000E+00
  0.00000000E+00  0.00000000E+00  0.00000000E+00
  0.00000000E+00  0.00000000E+00  0.00000000E+00
  0.00000000E+00  0.00000000E+00  0.00000000E+00
  0.00000000E+00  0.00000000E+00  0.00000000E+00
  0.00000000E+00  0.00000000E+00  0.00000000E+00
  0.00000000E+00  0.00000000E+00  0.00000000E+00
  0.00000000E+00  0.00000000E+00  0.00000000E+00
  0.00000000E+00  0.00000000E+00  0.00000000E+00
  0.00000000E+00  0.00000000E+00  0.00000000E+00
  0.00000000E+00  0.00000000E+00  0.00000000E+00
  0.00000000E+00  0.00000000E+00  0.00000000E+00
  0.00000000E+00  0.00000000E+00  0.00000000E+00
  0.00000000E+00  0.00000000E+00  0.00000000E+00
  0.00000000E+00  0.00000000E+00  0.00000000E+00
  0.00000000E+00  0.00000000E+00  0.00000000E+00
  0.00000000E+00  0.00000000E+00  0.00000000E+00
  0.00000000E+00  0.00000000E+00  0.00000000E+00
  0.00000000E+00  0.00000000E+00  0.00000000E+00
  0.00000000E+00  0.00000000E+00  0.00000000E+00
  0.00000000E+00  0.00000000E+00  0.00000000E+00
  0.00000000E+00  0.00000000E+00  0.00000000E+00
  0.00000000E+00  0.00000000E+00  0.00000000E+00
  0.00000000E+00  0.00000000E+00  0.00000000E+00
  0.00000000E+00  0.00000000E+00  0.00000000E+00
  0.00000000E+00  0.00000000E+00  0.00000000E+00
  0.00000000E+00  0.00000000E+00  0.00000000E+00
  0.00000000E+00  0.00000000E+00  0.00000000E+00
  0.00000000E+00  0.00000000E+00  0.00000000E+00
  0.00000000E+00  0.00000000E+00  0.00000000E+00
  0.00000000E+00  0.00000000E+00  0.00000000E+00
  0.00000000E+00  0.00000000E+00  0.00000000E+00
  0.00000000E+00  0.00000000E+00  0.00000000E+00
  0.00000000E+00  0.00000000E+00  0.00000000E+00
  0.00000000E+00  0.00000000E+00  0.00000000E+00
  0.00000000E+00  0.00000000E+00  0.00000000E+00
  0.00000000E+00  0.00000000E+00  0.00000000E+00
  0.00000000E+00  0.00000000E+00  0.00000000E+00
  0.00000000E+00  0.00000000E+00  0.00000000E+00
  0.00000000E+00  0.00000000E+00  0.00000000E+00
  0.00000000E+00  0.00000000E+00  0.00000000E+00
  0.00000000E+00  0.00000000E+00  0.00000000E+00
  0.00000000E+00  0.00000000E+00  0.00000000E+00
  0.00000000E+00  0.00000000E+00  0.00000000E+00
  0.00000000E+00  0.00000000E+00  0.00000000E+00
  0.00000000E+00  0.00000000E+00  0.00000000E+00
  0.00000000E+00  0.00000000E+00  0.00000000E+00
  0.00000000E+00  0.00000000E+00  0.00000000E+00
  0.00000000E+00  0.00000000E+00  0.00000000E+00
  0.00000000E+00  0.00000000E+00  0.00000000E+00
  0.00000000E+00  0.00000000E+00  0.00000000E+00
  0.00000000E+00  0.00000000E+00  0.00000000E+00
  0.00000000E+00  0.00000000E+00  0.00000000E+00
  0.00000000E+00  0.00000000E+00  0.00000000E+00
  0.00000000E+00  0.00000000E+00  0.00000000E+00
  0.00000000E+00  0.00000000E+00  0.00000000E+00
  0.00000000E+00  0.00000000E+00  0.00000000E+00
  0.00000000E+00  0.00000000E+00  0.00000000E+00
  0.00000000E+00  0.00000000E+00  0.00000000E+00
  0.00000000E+00  0.00000000E+00  0.00000000E+00
  0.00000000E+00  0.00000000E+00  0.00000000E+00
  0.00000000E+00  0.00000000E+00  0.00000000E+00
  0.00000000E+00  0.00000000E+00  0.00000000E+00
  0.00000000E+00  0.00000000E+00  0.00000000E+00
  0.00000000E+00  0.00000000E+00  0.00000000E+00
  0.00000000E+00  0.00000000E+00  0.00000000E+00
  0.00000000E+00  0.00000000E+00  0.00000000E+00
  0.00000000E+00  0.00000000E+00  0.00000000E+00
  0.00000000E+00  0.00000000E+00  0.00000000E+00
  0.00000000E+00  0.00000000E+00  0.00000000E+00
  0.00000000E+00  0.00000000E+00  0.00000000E+00
  0.00000000E+00  0.00000000E+00  0.00000000E+00
  0.00000000E+00  0.00000000E+00  0.00000000E+00
  0.00000000E+00  0.00000000E+00  0.00000000E+00
  0.00000000E+00  0.00000000E+00  0.00000000E+00
  0.00000000E+00  0.00000000E+00  0.00000000E+00
  0.00000000E+00  0.00000000E+00  0.00000000E+00
  0.00000000E+00  0.00000000E+00  0.00000000E+00
  0.00000000E+00  0.00000000E+00  0.00000000E+00
  0.00000000E+00  0.00000000E+00  0.00000000E+00
  0.00000000E+00  0.00000000E+00  0.00000000E+00
  0.00000000E+00  0.00000000E+00  0.00000000E+00
  0.00000000E+00  0.00000000E+00  0.00000000E+00
  0.00000000E+00  0.00000000E+00  0.00000000E+00
  0.00000000E+00  0.00000000E+00  0.00000000E+00
  0.00000000E+00  0.00000000E+00  0.00000000E+00
  0.00000000E+00  0.00000000E+00  0.00000000E+00
  0.00000000E+00  0.00000000E+00  0.00000000E+00
  0.00000000E+00  0.00000000E+00  0.00000000E+00
  0.00000000E+00  0.00000000E+00  0.00000000E+00
  0.00000000E+00  0.00000000E+00  0.00000000E+00
  0.00000000E+00  0.00000000E+00  0.00000000E+00
  0.00000000E+00  0.00000000E+00  0.00000000E+00
  0.00000000E+00  0.00000000E+00  0.00000000E+00
  0.00000000E+00  0.00000000E+00  0.00000000E+00
  0.00000000E+00  0.00000000E+00  0.00000000E+00
  0.00000000E+00  0.00000000E+00  0.00000000E+00
  0.00000000E+00  0.00000000E+00  0.00000000E+00
  0.00000000E+00  0.00000000E+00  0.00000000E+00
  0.00000000E+00  0.00000000E+00  0.00000000E+00
  0.00000000E+00  0.00000000E+00  0.00000000E+00
  0.00000000E+00  0.00000000E+00  0.00000000E+00
  0.00000000E+00  0.00000000E+00  0.00000000E+00
  0.00000000E+00  0.00000000E+00  0.00000000E+00
  0.00000000E+00  0.00000000E+00  0.00000000E+00
  0.00000000E+00  0.00000000E+00  0.00000000E+00
  0.00000000E+00  0.00000000E+00  0.00000000E+00
  0.00000000E+00  0.00000000E+00  0.00000000E+00
  0.00000000E+00  0.00000000E+00  0.00000000E+00
  0.00000000E+00  0.00000000E+00  0.00000000E+00
  0.00000000E+00  0.00000000E+00  0.00000000E+00
  0.00000000E+00  0.00000000E+00  0.00000000E+00
  0.00000000E+00  0.00000000E+00  0.00000000E+00
  0.00000000E+00  0.00000000E+00  0.00000000E+00
  0.00000000E+00  0.00000000E+00  0.00000000E+00
  0.00000000E+00  0.00000000E+00  0.00000000E+00
  0.00000000E+00  0.00000000E+00  0.00000000E+00
  0.00000000E+00  0.00000000E+00  0.00000000E+00
  0.00000000E+00  0.00000000E+00  0.00000000E+00
  0.00000000E+00  0.00000000E+00  0.00000000E+00
  0.00000000E+00  0.00000000E+00  0.00000000E+00
  0.00000000E+00  0.00000000E+00  0.00000000E+00
  0.00000000E+00  0.00000000E+00  0.00000000E+00
  0.00000000E+00  0.00000000E+00  0.00000000E+00
  0.00000000E+00  0.00000000E+00  0.00000000E+00