O  Si Ru C  H                           
   1.00000000000000     
    20.3096463179830877    0.0000000000000000    0.0000000000000000
     0.0000000000000000   19.8625212307842212    0.0000000000000000
     0.0000000000000000    0.0000000000000000   13.3711533343531652
   O    Si   Ru   C    H 
   192    96     3     1     3
Selective dynamics
Direct
  0.5030688123094720  0.0739662004709132  0.7059183560577296   F   F   F
  0.9971374625103309  0.5701560528035259  0.2100513377242024   F   F   F
  0.5026111374893603  0.4263958277816542  0.7049067727478118   F   F   F
  0.9969866781705221  0.9298680766950937  0.2118993148212169   F   F   F
  0.4978474936581705  0.9275669638134190  0.2922015944162339   F   F   F
  0.0035306093662157  0.4287078725231197  0.7895957989948741   F   F   F
  0.4973196137837164  0.5738952306114626  0.2926759243103305   F   F   F
  0.0034319757520862  0.0712109798670824  0.7890011229336693   F   F   F
  0.3884690319146387  0.0658878741744289  0.7993684282843034   F   F   F
  0.1128697986704239  0.5672266763200327  0.2979156196949617   F   F   F
  0.3888043158363104  0.4341147392399378  0.7989544495598722   F   F   F
  0.1122963847769824  0.9323254677632562  0.2981789604927556   F   F   F
  0.6112772365254386  0.9352639253532899  0.1977794237523156   F   F   F
  0.8874213106234023  0.4318421610399881  0.7021352649070636   F   F   F
  0.6112145140584602  0.5647350556042383  0.1983300820983374   F   F   F
  0.8875262227081251  0.0682092784436961  0.7017700357454970   F   F   F
  0.3999911352199845  0.1402338998619754  0.6354975436349477   F   F   F
  0.0965703822286201  0.6388806363734076  0.1325567740771803   F   F   F
  0.4002207409078764  0.3609848198323746  0.6345919508563327   F   F   F
  0.0951772606478869  0.8609819447321101  0.1325940483035950   F   F   F
  0.6065658714372830  0.8660064946278894  0.3638810241770329   F   F   F
  0.9038349404058010  0.3610915654313942  0.8675461058501881   F   F   F
  0.6046318773710553  0.6356404580084387  0.3631406524622136   F   F   F
  0.9037981809754356  0.1390010687580912  0.8672195906496398   F   F   F
  0.4049328028657229  0.0051789586500135  0.6215872877231590   F   F   F
  0.0960043974564044  0.5044990479086593  0.1235948893020336   F   F   F
  0.4054412300630261  0.4945978497320525  0.6239398094171804   F   F   F
  0.0954276628550019  0.9960689591721845  0.1239402178837565   F   F   F
  0.5945227612281982  0.9976538941564357  0.3736163932287511   F   F   F
  0.9055659795103139  0.4953920223229957  0.8755184942036252   F   F   F
  0.5940037738451949  0.5026510632388792  0.3728505945535261   F   F   F
  0.9055725413436093  0.0046407237990209  0.8754572949339163   F   F   F
  0.3237446873094072  0.0399423832808026  0.9637702370366910   F   F   F
  0.1757487050000677  0.5374613148161060  0.4648457267697736   F   F   F
  0.3235590861185713  0.4605992103329726  0.9647779400164680   F   F   F
  0.1760790321779737  0.9625289716958108  0.4666265673081114   F   F   F
  0.6780704364986150  0.9623185951975799  0.0346375301772710   F   F   F
  0.8239079590986904  0.4616359196483515  0.5355437164321302   F   F   F
  0.6780144444455587  0.5378502500930509  0.0347772190521098   F   F   F
  0.8240080682945390  0.0382358367137812  0.5352196934145681   F   F   F
  0.3179323341627338  0.9547000111563904  0.8080461393037979   F   F   F
  0.1785357895779285  0.4537327871408579  0.3063270607412107   F   F   F
  0.3177652431111113  0.5454018450953484  0.8071415308554890   F   F   F
  0.1792754269907562  0.0462095138175869  0.3068689320977782   F   F   F
  0.6821973913903037  0.0462338470981365  0.1927812910047351   F   F   F
  0.8216213654359095  0.5451896240236209  0.6930709363263503   F   F   F
  0.6822105116409674  0.4535929604717168  0.1924521051097372   F   F   F
  0.8216187880163588  0.9548038694203029  0.6931901992759251   F   F   F
  0.2585216641993924  0.0718427794226955  0.8016938885974270   F   F   F
  0.2444362218670690  0.5684235564461133  0.3052314543868420   F   F   F
  0.2579406883924804  0.4282434479188169  0.8014780612691368   F   F   F
  0.2439889907714701  0.9335707258646053  0.3054987720520188   F   F   F
  0.7425220121059795  0.9296146801632332  0.1993982430481438   F   F   F
  0.7561498643943310  0.4305613997849917  0.6971661269346470   F   F   F
  0.7422480045494169  0.5705893106662714  0.1994488735713347   F   F   F
  0.7561247478808042  0.0694855708229269  0.6971056317445132   F   F   F
  0.2916260900884140  0.1263474978002748  0.1067608586789035   F   F   F
  0.2087935015693319  0.6247301340412648  0.6060402657273301   F   F   F
  0.2916942545431951  0.3747144085585390  0.1060120412315868   F   F   F
  0.2095339124885385  0.8757013753088856  0.6070581159492932   F   F   F
  0.7093449605540556  0.8734586543609097  0.8950416968621226   F   F   F
  0.7912118558080437  0.3752541715526831  0.3929015874770485   F   F   F
  0.7092141989617176  0.6265079947018108  0.8950373229021409   F   F   F
  0.7912858353352235  0.1246575702147652  0.3928054099172016   F   F   F
  0.1997409235556731  0.0446880672638130  0.0272584317478390   F   F   F
  0.2989776008407787  0.5419795529264420  0.5291351236047035   F   F   F
  0.2004501840420687  0.4550781265959003  0.0282591276668569   F   F   F
  0.2989301934037059  0.9586085794111625  0.5282862733417346   F   F   F
  0.8014352302230421  0.9559581325035467  0.9717984147101220   F   F   F
  0.7009158975504803  0.4593413412010676  0.4689819755592524   F   F   F
  0.8014209932546450  0.5443746247748749  0.9713911222533724   F   F   F
  0.7010434410509774  0.0408272854003329  0.4699215816305440   F   F   F
  0.2934649270157337  0.9968230672448470  0.1451012032263037   F   F   F
  0.2041278538081173  0.4947857390027153  0.6473352896031699   F   F   F
  0.2935674114863289  0.5035904892719927  0.1465632257421277   F   F   F
  0.2042791473155745  0.0047966345560724  0.6467791281358402   F   F   F
  0.7068431633855710  0.0031273558547156  0.8516628292536481   F   F   F
  0.7973003128663905  0.5053046379327668  0.3530051625928650   F   F   F
  0.7069311513667031  0.4970601070643994  0.8517545375785858   F   F   F
  0.7972942717992879  0.9945747011298778  0.3531135370973928   F   F   F
  0.1089968456401493  0.1277343623940794  0.0976602795511923   F   F   F
  0.3883117629772244  0.6259033652747448  0.6024407065756563   F   F   F
  0.1087627145367804  0.3720141016553882  0.0973649849337335   F   F   F
  0.3881019536887251  0.8750181363895990  0.6035041469863955   F   F   F
  0.8925338731108354  0.8722728665204684  0.9013975310676798   F   F   F
  0.6104566674436640  0.3719878858863410  0.4052625071828970   F   F   F
  0.8929185772892509  0.6277969135584556  0.9012666415534909   F   F   F
  0.6107654466440096  0.1283918542406397  0.4056636161551950   F   F   F
  0.0806006888979027  0.0485208393059011  0.9459914050620952   F   F   F
  0.4174032137789183  0.5501264092951743  0.4453804669114803   F   F   F
  0.0808892015987581  0.4515384472865946  0.9454765345885008   F   F   F
  0.4174559851446986  0.9500773979803583  0.4450417550693757   F   F   F
  0.9197581277532478  0.9520797730480908  0.0541881694526722   F   F   F
  0.5829630901946672  0.4549523314828079  0.5548767397942740   F   F   F
  0.9196859080415791  0.5480984105163529  0.0543691107648456   F   F   F
  0.5829356695358641  0.0452067674533083  0.5545421425521369   F   F   F
  0.1295563070807759  0.0811265903824392  0.7665732126552740   F   F   F
  0.3710604647716522  0.5781850940867059  0.2615756945644065   F   F   F
  0.1302981263273182  0.4192907839422801  0.7667562798231629   F   F   F
  0.3699469092871226  0.9235266216820008  0.2644880422292530   F   F   F
  0.8697645667917868  0.9189164052732153  0.2322085901715312   F   F   F
  0.6290112411935169  0.4249921965997601  0.7355493517588840   F   F   F
  0.8701522964494544  0.5809869776955523  0.2322503340148643   F   F   F
  0.6292188736393882  0.0753166527595539  0.7357435005829274   F   F   F
  0.0777028698581859  0.9609600939323144  0.7925348244204073   F   F   F
  0.4278431562847445  0.4609203282713068  0.2973765719712063   F   F   F
  0.0771387543553530  0.5394324354892035  0.7938843656748134   F   F   F
  0.4275534754772181  0.0389167873889988  0.2970821894925066   F   F   F
  0.9214637598566853  0.0395636950847447  0.2054849994641970   F   F   F
  0.5687893782061622  0.5426476136663041  0.7044257033275301   F   F   F
  0.9219381165416394  0.4606019641481041  0.2055086539820934   F   F   F
  0.5690493317978209  0.9585105441519062  0.7040187800438744   F   F   F
  0.2143452054838235  0.1404308185408993  0.6473898822090689   F   F   F
  0.2828922578764477  0.6386118746810325  0.1471604236279092   F   F   F
  0.2139164206593023  0.3605306546936760  0.6474913512186191   F   F   F
  0.2770847582499698  0.8648549581225495  0.1470572394328329   F   F   F
  0.7858206065395876  0.8603751193152576  0.3518733768457238   F   F   F
  0.7123287123986799  0.3628560617821961  0.8519780125568417   F   F   F
  0.7860033673161837  0.6396934794653717  0.3519577887370460   F   F   F
  0.7125181376230927  0.1372881356001798  0.8521377438353497   F   F   F
  0.4985275933600164  0.8447797881308716  0.7072137089778252   F   F   F
  0.0028340715920478  0.3558621296202560  0.2144797673621639   F   F   F
  0.4984850232235161  0.6549396548526545  0.7073195962883219   F   F   F
  0.0028486597862667  0.1442778317222775  0.2144086975716988   F   F   F
  0.5033072915149361  0.1472559120082337  0.2914625122750962   F   F   F
  0.9987194905668630  0.6464164766107672  0.7836130815292819   F   F   F
  0.5032788722921921  0.3531863855183204  0.2905447711134599   F   F   F
  0.9984738437374361  0.8534430018477863  0.7857599989900166   F   F   F
  0.3836418853485881  0.8386543043907864  0.7964376239111672   F   F   F
  0.1198918705356320  0.3347539243532083  0.2893738199042275   F   F   F
  0.3843189179263291  0.6595494224322067  0.7954779690701130   F   F   F
  0.1198411880051324  0.1645679198059753  0.2897588364997361   F   F   F
  0.6200095472559397  0.1639197532398740  0.2130556556216163   F   F   F
  0.8816228465320251  0.6639977330865960  0.7095887346846297   F   F   F
  0.6199122280481717  0.3367181558729797  0.2130580145758785   F   F   F
  0.8821484761048666  0.8367177807901811  0.7098638566096369   F   F   F
  0.4135207068532907  0.7508640095248893  0.6548580969879723   F   F   F
  0.0727411466500811  0.2504904573306064  0.1524464104590564   F   F   F
  0.5779429211919904  0.2499346467644230  0.3509277570352367   F   F   F
  0.9260035160098639  0.7500130748445741  0.8463049120024166   F   F   F
  0.3143305665090352  0.8680224273320221  0.9584987364985338   F   F   F
  0.1830503441349549  0.3670675366950462  0.4555174392124783   F   F   F
  0.3140980507417126  0.6317711643111821  0.9570132800279083   F   F   F
  0.1823178808920431  0.1321477928248314  0.4565066932945072   F   F   F
  0.6823381208523998  0.1350526956469551  0.0441493256218379   F   F   F
  0.8164758861555583  0.6317137048314265  0.5444862891156532   F   F   F
  0.6825076274212023  0.3650139050893486  0.0444899720655627   F   F   F
  0.8168134460982728  0.8685857544989801  0.5447955979610342   F   F   F
  0.2534134529333230  0.8391731655374457  0.7886700559007025   F   F   F
  0.2498122993993661  0.3423186130236928  0.2908157654817316   F   F   F
  0.2539095088644459  0.6603206021156893  0.7870515521011114   F   F   F
  0.2506911049780385  0.1576587434662997  0.2900356591361870   F   F   F
  0.7509052476217235  0.1596083993368893  0.2099294924460509   F   F   F
  0.7507749768302077  0.6570010624292166  0.7107367087138883   F   F   F
  0.7507599887055250  0.3405394140653755  0.2100731947559140   F   F   F
  0.7509276498636268  0.8428934615508084  0.7110532902482376   F   F   F
  0.2929714507981203  0.7503537712985633  0.0412220508171544   F   F   F
  0.2021683577833073  0.2502881182522287  0.5428072392371206   F   F   F
  0.7050922659608148  0.2501674895141122  0.9516329943155029   F   F   F
  0.8027116801618561  0.7496429983879622  0.4565636255043231   F   F   F
  0.1939957888276780  0.8314988746420866  0.0089593410433082   F   F   F
  0.3031736116509833  0.3320363670170039  0.5079623083713543   F   F   F
  0.1946567814880567  0.6666449904901484  0.0073789447908652   F   F   F
  0.3032213086891105  0.1675058620278591  0.5077575421160034   F   F   F
  0.8037134852059964  0.1647564043241019  0.9888577737072382   F   F   F
  0.6977326359458047  0.6735718907528963  0.4907496437963417   F   F   F
  0.8036200085900020  0.3353471937699695  0.9888182986387122   F   F   F
  0.6984076973036579  0.8262933162856214  0.4922535842611140   F   F   F
  0.0921864789616649  0.7499709182777536  0.0253984136306258   F   F   F
  0.4063035977425287  0.2503125025715036  0.5244718088056715   F   F   F
  0.9047752893537719  0.2500250794861429  0.9751893215467931   F   F   F
  0.5919334948962458  0.7504353360901348  0.4630071189967211   F   F   F
  0.0806461993382044  0.8698329929114550  0.9393092126575340   F   F   F
  0.4190515728751905  0.3700260305293952  0.4390739296179120   F   F   F
  0.0791858809205763  0.6305938460470344  0.9384653524456468   F   F   F
  0.4195087979952206  0.1300592423127824  0.4394220592248104   F   F   F
  0.9189807519638578  0.1317508978265138  0.0633479828831085   F   F   F
  0.5836768427556009  0.6318715622003168  0.5621686535027735   F   F   F
  0.9191040554560743  0.3684443559168145  0.0636594917391591   F   F   F
  0.5833815371702258  0.8673796911836007  0.5617203986698556   F   F   F
  0.1257500931576203  0.8398033433953458  0.7523614655486739   F   F   F
  0.3778364540250934  0.3423636089792268  0.2523786772932937   F   F   F
  0.1255185809584063  0.6599210082728035  0.7529225307055825   F   F   F
  0.3774982941340070  0.1582305671481024  0.2524583354998100   F   F   F
  0.8771128090635401  0.1610732414288663  0.2502963362596375   F   F   F
  0.6241955849577536  0.6589096155126626  0.7489464576430862   F   F   F
  0.8773287389595197  0.3392343326246703  0.2500183646038963   F   F   F
  0.6241096106728250  0.8409499956760484  0.7496691412313936   F   F   F
  0.2012420750666593  0.7499456376527860  0.6640626525176430   F   F   F
  0.3014269026816550  0.2498436051034503  0.1689706031109139   F   F   F
  0.7992820189699330  0.2499960830202070  0.3354601458751389   F   F   F
  0.7012895273599113  0.7500732227036622  0.8314190762122848   F   F   F
  0.4238645856315912  0.0708734199961611  0.6901107487822600   F   F   F
  0.0756836411806816  0.5697881716083089  0.1902973986987249   F   F   F
  0.4238545147647059  0.4296195713005417  0.6895542730397466   F   F   F
  0.0757976712964208  0.9297128785886599  0.1915414501810204   F   F   F
  0.5756327333461471  0.9316786117243439  0.3075762144564891   F   F   F
  0.9249611953748698  0.4296859965196873  0.8095939710350919   F   F   F
  0.5758740336977013  0.5690852880040254  0.3073265414501307   F   F   F
  0.9251722217058145  0.0703406589167273  0.8094926465298968   F   F   F
  0.3223838622034449  0.0320769352437935  0.8440415930230856   F   F   F
  0.1777615803886334  0.5315467711128150  0.3445981611947175   F   F   F
  0.3221091752636838  0.4668227415508568  0.8441092150448739   F   F   F
  0.1775931493155909  0.9685680027948393  0.3459616134164634   F   F   F
  0.6788081454296346  0.9682989680335226  0.1548115355002722   F   F   F
  0.8220894709097522  0.4673259041584998  0.6561792049337356   F   F   F
  0.6786804438454084  0.5315781789192897  0.1555315955199461   F   F   F
  0.8221558157921649  0.0325053181193908  0.6559021249025676   F   F   F
  0.2764898487220364  0.0522617905810492  0.0608276515023789   F   F   F
  0.2220252420665787  0.5501028008950044  0.5622072703011085   F   F   F
  0.2768330389830638  0.4480374631089106  0.0606370008180690   F   F   F
  0.2221636429694556  0.9500369263077317  0.5610160280600809   F   F   F
  0.7245408330280370  0.9482148782994244  0.9380180475756603   F   F   F
  0.7784432640168077  0.4503283425873121  0.4371240950874480   F   F   F
  0.7246577176656430  0.5519391132300981  0.9378269095221015   F   F   F
  0.7784396534159654  0.0498380128293476  0.4373689895570081   F   F   F
  0.1216629894042569  0.0539192644391946  0.0483275416806208   F   F   F
  0.3775351900385076  0.5532070953130557  0.5480419732875319   F   F   F
  0.1218356831050826  0.4459760811196531  0.0489730707414253   F   F   F
  0.3766706059896237  0.9469908460568490  0.5495315498573490   F   F   F
  0.8797552021235973  0.9456253838771076  0.9503917009198588   F   F   F
  0.6226515437543512  0.4470468090408346  0.4505078547385466   F   F   F
  0.8797800386857233  0.5539785252479419  0.9498261861097106   F   F   F
  0.6225992186885065  0.0528594609069870  0.4504980327951742   F   F   F
  0.0731743444954915  0.0399761526498068  0.8259407767824385   F   F   F
  0.4281694218168042  0.5411041470392632  0.3255059426128639   F   F   F
  0.0731262772043451  0.4601997597916423  0.8250616481987194   F   F   F
  0.4292458842728948  0.9588585166649324  0.3273903377981071   F   F   F
  0.9262902699096642  0.9606764840923461  0.1742295910887250   F   F   F
  0.5712772138543158  0.4621680274239779  0.6743295339550173   F   F   F
  0.9271321318809882  0.5396879788666809  0.1745223225305281   F   F   F
  0.5718934757021259  0.0376760802512237  0.6743665431361379   F   F   F
  0.2016134480239060  0.0730455663885223  0.7149111497381497   F   F   F
  0.2987294473115085  0.5727470067986218  0.2132847449108937   F   F   F
  0.2016989568013230  0.4270990889674025  0.7147915092249306   F   F   F
  0.2958760248756391  0.9307442188886128  0.2124301506746562   F   F   F
  0.7988843874766118  0.9267517692366170  0.2850205929006080   F   F   F
  0.7012445057015668  0.4295200882631249  0.7844664064588542   F   F   F
  0.7989229324797691  0.5731991535379919  0.2853093115424699   F   F   F
  0.7015865075040324  0.0710388068314174  0.7848545467189609   F   F   F
  0.4211865727160600  0.8280572476005972  0.6901993430960829   F   F   F
  0.0760163733637853  0.3286782695921246  0.1883796356126126   F   F   F
  0.4222546457511527  0.6719313569785044  0.6894551111966791   F   F   F
  0.0765059124913492  0.1713664214356569  0.1875178669628994   F   F   F
  0.5770355927606019  0.1718556979116173  0.3154528720878886   F   F   F
  0.9251873925950846  0.6719015468001430  0.8111559842814984   F   F   F
  0.5773043293996523  0.3279652951994123  0.3152083231986111   F   F   F
  0.9245352711322710  0.8281750765614575  0.8116344630433687   F   F   F
  0.3175984060110011  0.8753524234543448  0.8370471943865496   F   F   F
  0.1826175504534220  0.3743224078679575  0.3351122526886741   F   F   F
  0.3175813124995202  0.6237107324455664  0.8375306967368772   F   F   F
  0.1835022353251858  0.1259913873155796  0.3347796087979589   F   F   F
  0.6839982834386618  0.1261350358472342  0.1648492797128540   F   F   F
  0.8176757727151340  0.6246236538469603  0.6653558689150856   F   F   F
  0.6839052761176561  0.3738473929004371  0.1654574657733932   F   F   F
  0.8180028891815425  0.8752452912404465  0.6655325625211219   F   F   F
  0.2708926124986633  0.8274927098007581  0.0398237082055957   F   F   F
  0.2259402098344694  0.3274121773841756  0.5389210746568054   F   F   F
  0.2718750427479506  0.6720940151441823  0.0418553800465489   F   F   F
  0.2257901897035595  0.1728776284323317  0.5385220176024177   F   F   F
  0.7266957300071937  0.1720051995763754  0.9588567155757488   F   F   F
  0.7749914282930135  0.6730594402708903  0.4606056176454842   F   F   F
  0.7265194381793663  0.3280172411803335  0.9594771524927168   F   F   F
  0.7758044820709884  0.8269513242176103  0.4608326976088151   F   F   F
  0.1150690712982296  0.8275047647541953  0.0273083834456855   F   F   F
  0.3820820226036119  0.3282393324205231  0.5266034914005147   F   F   F
  0.1157751941372922  0.6730821886231269  0.0267254076620418   F   F   F
  0.3824395502946984  0.1722742386505445  0.5269976080214320   F   F   F
  0.8824729983869375  0.1717644351748646  0.9739212464521572   F   F   F
  0.6189885195374458  0.6714875064399379  0.4708274439301903   F   F   F
  0.8825789685040490  0.3282684257356649  0.9736199270844210   F   F   F
  0.6196979388749426  0.8295453609777752  0.4705835316901883   F   F   F
  0.0710188198954214  0.8810184054606793  0.8192766619002541   F   F   F
  0.4315800296701084  0.3814888307319890  0.3202479549333077   F   F   F
  0.0708954909839932  0.6194853110709602  0.8175945372574702   F   F   F
  0.4314693595856482  0.1187246765590260  0.3202578231733995   F   F   F
  0.9294448028211022  0.1191665391367849  0.1825025854262066   F   F   F
  0.5696382986340538  0.6213455836248656  0.6800940318060142   F   F   F
  0.9297775618928625  0.3808333808289106  0.1826317060296176   F   F   F
  0.5693189109130472  0.8781524236982179  0.6801941656652417   F   F   F
  0.1982983904377207  0.8275948843943510  0.7023432318810237   F   F   F
  0.3049307214431067  0.3277034777295356  0.2044165097031936   F   F   F
  0.1973568291199328  0.6722840969027430  0.7031187454469503   F   F   F
  0.3057354165072752  0.1723170464457198  0.2054588934427315   F   F   F
  0.8049151854994747  0.1728551904720632  0.2976753836713613   F   F   F
  0.6968187861621118  0.6726059320829876  0.7967903249968202   F   F   F
  0.8047111272554375  0.3271784910259115  0.2971973078839056   F   F   F
  0.6968661390997255  0.8272585354102731  0.7966617130013205   F   F   F
  0.4945576830069527  0.7575613178497065  0.3741306109432543   F   F   F
  0.3871017649711135  0.7869269804772330  0.2805370007964783   F   F   F
  0.3881038273912196  0.7312906435932263  0.4297104413802586   F   F   F
  0.4614907321540400  0.7354498072860238  0.2481340667170997   T   T   T
  0.4782501417485889  0.7046342459454635  0.1847140184993208   T   T   T
  0.4494077635349853  0.8124237428010090  0.2071842071056409   T   T   T
  0.3682831010430334  0.7796934391911350  0.1603524648323812   T   T   T
 
  0.00000000E+00  0.00000000E+00  0.00000000E+00
  0.00000000E+00  0.00000000E+00  0.00000000E+00
  0.00000000E+00  0.00000000E+00  0.00000000E+00
  0.00000000E+00  0.00000000E+00  0.00000000E+00
  0.00000000E+00  0.00000000E+00  0.00000000E+00
  0.00000000E+00  0.00000000E+00  0.00000000E+00
  0.00000000E+00  0.00000000E+00  0.00000000E+00
  0.00000000E+00  0.00000000E+00  0.00000000E+00
  0.00000000E+00  0.00000000E+00  0.00000000E+00
  0.00000000E+00  0.00000000E+00  0.00000000E+00
  0.00000000E+00  0.00000000E+00  0.00000000E+00
  0.00000000E+00  0.00000000E+00  0.00000000E+00
  0.00000000E+00  0.00000000E+00  0.00000000E+00
  0.00000000E+00  0.00000000E+00  0.00000000E+00
  0.00000000E+00  0.00000000E+00  0.00000000E+00
  0.00000000E+00  0.00000000E+00  0.00000000E+00
  0.00000000E+00  0.00000000E+00  0.00000000E+00
  0.00000000E+00  0.00000000E+00  0.00000000E+00
  0.00000000E+00  0.00000000E+00  0.00000000E+00
  0.00000000E+00  0.00000000E+00  0.00000000E+00
  0.00000000E+00  0.00000000E+00  0.00000000E+00
  0.00000000E+00  0.00000000E+00  0.00000000E+00
  0.00000000E+00  0.00000000E+00  0.00000000E+00
  0.00000000E+00  0.00000000E+00  0.00000000E+00
  0.00000000E+00  0.00000000E+00  0.00000000E+00
  0.00000000E+00  0.00000000E+00  0.00000000E+00
  0.00000000E+00  0.00000000E+00  0.00000000E+00
  0.00000000E+00  0.00000000E+00  0.00000000E+00
  0.00000000E+00  0.00000000E+00  0.00000000E+00
  0.00000000E+00  0.00000000E+00  0.00000000E+00
  0.00000000E+00  0.00000000E+00  0.00000000E+00
  0.00000000E+00  0.00000000E+00  0.00000000E+00
  0.00000000E+00  0.00000000E+00  0.00000000E+00
  0.00000000E+00  0.00000000E+00  0.00000000E+00
  0.00000000E+00  0.00000000E+00  0.00000000E+00
  0.00000000E+00  0.00000000E+00  0.00000000E+00
  0.00000000E+00  0.00000000E+00  0.00000000E+00
  0.00000000E+00  0.00000000E+00  0.00000000E+00
  0.00000000E+00  0.00000000E+00  0.00000000E+00
  0.00000000E+00  0.00000000E+00  0.00000000E+00
  0.00000000E+00  0.00000000E+00  0.00000000E+00
  0.00000000E+00  0.00000000E+00  0.00000000E+00
  0.00000000E+00  0.00000000E+00  0.00000000E+00
  0.00000000E+00  0.00000000E+00  0.00000000E+00
  0.00000000E+00  0.00000000E+00  0.00000000E+00
  0.00000000E+00  0.00000000E+00  0.00000000E+00
  0.00000000E+00  0.00000000E+00  0.00000000E+00
  0.00000000E+00  0.00000000E+00  0.00000000E+00
  0.00000000E+00  0.00000000E+00  0.00000000E+00
  0.00000000E+00  0.00000000E+00  0.00000000E+00
  0.00000000E+00  0.00000000E+00  0.00000000E+00
  0.00000000E+00  0.00000000E+00  0.00000000E+00
  0.00000000E+00  0.00000000E+00  0.00000000E+00
  0.00000000E+00  0.00000000E+00  0.00000000E+00
  0.00000000E+00  0.00000000E+00  0.00000000E+00
  0.00000000E+00  0.00000000E+00  0.00000000E+00
  0.00000000E+00  0.00000000E+00  0.00000000E+00
  0.00000000E+00  0.00000000E+00  0.00000000E+00
  0.00000000E+00  0.00000000E+00  0.00000000E+00
  0.00000000E+00  0.00000000E+00  0.00000000E+00
  0.00000000E+00  0.00000000E+00  0.00000000E+00
  0.00000000E+00  0.00000000E+00  0.00000000E+00
  0.00000000E+00  0.00000000E+00  0.00000000E+00
  0.00000000E+00  0.00000000E+00  0.00000000E+00
  0.00000000E+00  0.00000000E+00  0.00000000E+00
  0.00000000E+00  0.00000000E+00  0.00000000E+00
  0.00000000E+00  0.00000000E+00  0.00000000E+00
  0.00000000E+00  0.00000000E+00  0.00000000E+00
  0.00000000E+00  0.00000000E+00  0.00000000E+00
  0.00000000E+00  0.00000000E+00  0.00000000E+00
  0.00000000E+00  0.00000000E+00  0.00000000E+00
  0.00000000E+00  0.00000000E+00  0.00000000E+00
  0.00000000E+00  0.00000000E+00  0.00000000E+00
  0.00000000E+00  0.00000000E+00  0.00000000E+00
  0.00000000E+00  0.00000000E+00  0.00000000E+00
  0.00000000E+00  0.00000000E+00  0.00000000E+00
  0.00000000E+00  0.00000000E+00  0.00000000E+00
  0.00000000E+00  0.00000000E+00  0.00000000E+00
  0.00000000E+00  0.00000000E+00  0.00000000E+00
  0.00000000E+00  0.00000000E+00  0.00000000E+00
  0.00000000E+00  0.00000000E+00  0.00000000E+00
  0.00000000E+00  0.00000000E+00  0.00000000E+00
  0.00000000E+00  0.00000000E+00  0.00000000E+00
  0.00000000E+00  0.00000000E+00  0.00000000E+00
  0.00000000E+00  0.00000000E+00  0.00000000E+00
  0.00000000E+00  0.00000000E+00  0.00000000E+00
  0.00000000E+00  0.00000000E+00  0.00000000E+00
  0.00000000E+00  0.00000000E+00  0.00000000E+00
  0.00000000E+00  0.00000000E+00  0.00000000E+00
  0.00000000E+00  0.00000000E+00  0.00000000E+00
  0.00000000E+00  0.00000000E+00  0.00000000E+00
  0.00000000E+00  0.00000000E+00  0.00000000E+00
  0.00000000E+00  0.00000000E+00  0.00000000E+00
  0.00000000E+00  0.00000000E+00  0.00000000E+00
  0.00000000E+00  0.00000000E+00  0.00000000E+00
  0.00000000E+00  0.00000000E+00  0.00000000E+00
  0.00000000E+00  0.00000000E+00  0.00000000E+00
  0.00000000E+00  0.00000000E+00  0.00000000E+00
  0.00000000E+00  0.00000000E+00  0.00000000E+00
  0.00000000E+00  0.00000000E+00  0.00000000E+00
  0.00000000E+00  0.00000000E+00  0.00000000E+00
  0.00000000E+00  0.00000000E+00  0.00000000E+00
  0.00000000E+00  0.00000000E+00  0.00000000E+00
  0.00000000E+00  0.00000000E+00  0.00000000E+00
  0.00000000E+00  0.00000000E+00  0.00000000E+00
  0.00000000E+00  0.00000000E+00  0.00000000E+00
  0.00000000E+00  0.00000000E+00  0.00000000E+00
  0.00000000E+00  0.00000000E+00  0.00000000E+00
  0.00000000E+00  0.00000000E+00  0.00000000E+00
  0.00000000E+00  0.00000000E+00  0.00000000E+00
  0.00000000E+00  0.00000000E+00  0.00000000E+00
  0.00000000E+00  0.00000000E+00  0.00000000E+00
  0.00000000E+00  0.00000000E+00  0.00000000E+00
  0.00000000E+00  0.00000000E+00  0.00000000E+00
  0.00000000E+00  0.00000000E+00  0.00000000E+00
  0.00000000E+00  0.00000000E+00  0.00000000E+00
  0.00000000E+00  0.00000000E+00  0.00000000E+00
  0.00000000E+00  0.00000000E+00  0.00000000E+00
  0.00000000E+00  0.00000000E+00  0.00000000E+00
  0.00000000E+00  0.00000000E+00  0.00000000E+00
  0.00000000E+00  0.00000000E+00  0.00000000E+00
  0.00000000E+00  0.00000000E+00  0.00000000E+00
  0.00000000E+00  0.00000000E+00  0.00000000E+00
  0.00000000E+00  0.00000000E+00  0.00000000E+00
  0.00000000E+00  0.00000000E+00  0.00000000E+00
  0.00000000E+00  0.00000000E+00  0.00000000E+00
  0.00000000E+00  0.00000000E+00  0.00000000E+00
  0.00000000E+00  0.00000000E+00  0.00000000E+00
  0.00000000E+00  0.00000000E+00  0.00000000E+00
  0.00000000E+00  0.00000000E+00  0.00000000E+00
  0.00000000E+00  0.00000000E+00  0.00000000E+00
  0.00000000E+00  0.00000000E+00  0.00000000E+00
  0.00000000E+00  0.00000000E+00  0.00000000E+00
  0.00000000E+00  0.00000000E+00  0.00000000E+00
  0.00000000E+00  0.00000000E+00  0.00000000E+00
  0.00000000E+00  0.00000000E+00  0.00000000E+00
  0.00000000E+00  0.00000000E+00  0.00000000E+00
  0.00000000E+00  0.00000000E+00  0.00000000E+00
  0.00000000E+00  0.00000000E+00  0.00000000E+00
  0.00000000E+00  0.00000000E+00  0.00000000E+00
  0.00000000E+00  0.00000000E+00  0.00000000E+00
  0.00000000E+00  0.00000000E+00  0.00000000E+00
  0.00000000E+00  0.00000000E+00  0.00000000E+00
  0.00000000E+00  0.00000000E+00  0.00000000E+00
  0.00000000E+00  0.00000000E+00  0.00000000E+00
  0.00000000E+00  0.00000000E+00  0.00000000E+00
  0.00000000E+00  0.00000000E+00  0.00000000E+00
  0.00000000E+00  0.00000000E+00  0.00000000E+00
  0.00000000E+00  0.00000000E+00  0.00000000E+00
  0.00000000E+00  0.00000000E+00  0.00000000E+00
  0.00000000E+00  0.00000000E+00  0.00000000E+00
  0.00000000E+00  0.00000000E+00  0.00000000E+00
  0.00000000E+00  0.00000000E+00  0.00000000E+00
  0.00000000E+00  0.00000000E+00  0.00000000E+00
  0.00000000E+00  0.00000000E+00  0.00000000E+00
  0.00000000E+00  0.00000000E+00  0.00000000E+00
  0.00000000E+00  0.00000000E+00  0.00000000E+00
  0.00000000E+00  0.00000000E+00  0.00000000E+00
  0.00000000E+00  0.00000000E+00  0.00000000E+00
  0.00000000E+00  0.00000000E+00  0.00000000E+00
  0.00000000E+00  0.00000000E+00  0.00000000E+00
  0.00000000E+00  0.00000000E+00  0.00000000E+00
  0.00000000E+00  0.00000000E+00  0.00000000E+00
  0.00000000E+00  0.00000000E+00  0.00000000E+00
  0.00000000E+00  0.00000000E+00  0.00000000E+00