O  Si Ru C  H                           
   1.00000000000000     
    20.3096463179830877    0.0000000000000000    0.0000000000000000
     0.0000000000000000   19.8625212307842212    0.0000000000000000
     0.0000000000000000    0.0000000000000000   13.3711533343531652
   O    Si   Ru   C    H 
   192    96     2     2     6
Selective dynamics
Direct
  0.5025983423026972  0.0736772108545409  0.7069737858450367   F   F   F
  0.9977728889170245  0.5718758006278544  0.2094543046559374   T   T   T
  0.5030496701180951  0.4264905122489111  0.7071074794100625   F   F   F
  0.9978593258926127  0.9280134970598442  0.2094570597074812   T   T   T
  0.4974758945242069  0.9270677548926463  0.2913166843504449   T   T   T
  0.0031833971711990  0.4269534535970436  0.7921555590210403   F   F   F
  0.4973310659630582  0.5730683762358085  0.2913751061229541   T   T   T
  0.0032612300906720  0.0729204954578719  0.7917609341870602   F   F   F
  0.3877372034300279  0.0669237685003949  0.7965998572659601   F   F   F
  0.1135431964182800  0.5679024267327717  0.2969883603848987   T   T   T
  0.3878029950302420  0.4330235562951330  0.7965615651877584   F   F   F
  0.1138791837707545  0.9316629604537812  0.2966393926112973   T   T   T
  0.6128894032837437  0.9319882639031848  0.2031327767387420   T   T   T
  0.8876225530381490  0.4327376544666635  0.7036237954903868   F   F   F
  0.6126933590361556  0.5682590089734454  0.2026812971247374   T   T   T
  0.8876787009832796  0.0674224315737746  0.7036438234778757   F   F   F
  0.4009238364882890  0.1389598078719700  0.6318784427855633   F   F   F
  0.0981613806583918  0.6391540443908601  0.1324520438181452   T   T   T
  0.4009991845856007  0.3609269989866561  0.6317812748161202   F   F   F
  0.0977686138044733  0.8603341009650213  0.1322434946714855   T   T   T
  0.5973903770685560  0.8604395837272131  0.3688680460994411   T   T   T
  0.9019290341474147  0.3610054489888483  0.8686161171431053   F   F   F
  0.5973513703411473  0.6397932335839314  0.3684585470060500   T   T   T
  0.9020656738071011  0.1389873215714914  0.8685910012129341   F   F   F
  0.4058668461075001  0.0047035681587460  0.6214123658068331   F   F   F
  0.0952226543392456  0.5047544813128013  0.1226139929619734   F   F   F
  0.4060043687185839  0.4949865215930629  0.6218765235673516   F   F   F
  0.0953457416670640  0.9949085343742063  0.1226468549112444   T   T   T
  0.5951127301608097  0.9955113620171621  0.3763911848754470   T   T   T
  0.9063216031338612  0.4953823283580476  0.8779915705802352   F   F   F
  0.5949784864967711  0.5046073536858557  0.3755922688959572   F   F   F
  0.9063246335042976  0.0045903148351698  0.8777166645218202   F   F   F
  0.3240724880538437  0.0382431805837768  0.9636742190013621   F   F   F
  0.1764440753525300  0.5378317031320501  0.4647046333098565   T   T   T
  0.3241265099185995  0.4617893230082331  0.9638628934608917   F   F   F
  0.1761334789965893  0.9620339820596968  0.4646537535307113   T   T   T
  0.6776316005636585  0.9613253511969324  0.0365153235630884   T   T   T
  0.8239188863895492  0.4615643942807779  0.5361689788134996   F   F   F
  0.6775462936446909  0.5386474191949873  0.0364982827854270   T   T   T
  0.8238126630990266  0.0383763666485919  0.5362379500618459   F   F   F
  0.3209182073221969  0.9538013451416220  0.8078999127640933   T   T   T
  0.1776545342210198  0.4533443888147062  0.3068573264013850   F   F   F
  0.3210102782005569  0.5465755434392052  0.8076613199116509   T   T   T
  0.1777168280998822  0.0465312928356454  0.3068891187439320   F   F   F
  0.6783027348373736  0.0463392337289434  0.1930436967509550   F   F   F
  0.8219642515509386  0.5467534361066609  0.6917722339637461   T   T   T
  0.6783274238637276  0.4537945398546270  0.1931594700133132   F   F   F
  0.8218695370240133  0.9531962163968821  0.6916286707351194   T   T   T
  0.2564901149487255  0.0684404634643982  0.8019784684234708   F   F   F
  0.2451175986134972  0.5669712761319614  0.3039966030690591   T   T   T
  0.2564075970658166  0.4315614617770080  0.8019911177500205   F   F   F
  0.2455117444354226  0.9330783958854246  0.3046608944468487   T   T   T
  0.7438853366449641  0.9310455868068706  0.2004470942310758   T   T   T
  0.7561981700548870  0.4313826820753164  0.6984299057516736   F   F   F
  0.7437499856139902  0.5690869676394740  0.2003506306275428   T   T   T
  0.7561025779291413  0.0686771662286887  0.6983720940606091   F   F   F
  0.2923372261504227  0.1261284777030127  0.1042338069233466   F   F   F
  0.2082301709210756  0.6259993265852263  0.6049285465411747   T   T   T
  0.2924431839111037  0.3738320579969496  0.1043915698936004   F   F   F
  0.2080354445073131  0.8738857499468315  0.6047116923733613   T   T   T
  0.7104566742961560  0.8739803365629704  0.8948743830564603   T   T   T
  0.7920455779776887  0.3742381808329611  0.3956926881866707   F   F   F
  0.7104953793867267  0.6260743973858239  0.8950494557478428   T   T   T
  0.7918544918310815  0.1259410174050046  0.3953995434986268   F   F   F
  0.2010738462838901  0.0429255841972989  0.0293547120779962   F   F   F
  0.2998207464762517  0.5430200395705892  0.5303131945385475   T   T   T
  0.2011271769453273  0.4572129755529275  0.0295174238062330   F   F   F
  0.2996130745648284  0.9566371055092274  0.5297756813855050   T   T   T
  0.8003488758379680  0.9581458519057582  0.9704869289330135   T   T   T
  0.7005578302315953  0.4572267677319104  0.4705761440072465   F   F   F
  0.8003618728474400  0.5419409266848608  0.9708058401884450   T   T   T
  0.7004906071046051  0.0425200020205168  0.4703162419204858   F   F   F
  0.2957448189241212  0.9968382723910153  0.1469448636567169   T   T   T
  0.2041438479395339  0.4966368335748470  0.6473051412736623   F   F   F
  0.2965845795825928  0.5035486316664901  0.1467867314166682   F   F   F
  0.2042317045191453  0.0033163337692130  0.6470299099863510   F   F   F
  0.7035496385922073  0.0031135081744011  0.8525340649481166   F   F   F
  0.7965734320491933  0.5037758824707410  0.3536896800323319   F   F   F
  0.7037292741908630  0.4969793175258346  0.8526466222578222   F   F   F
  0.7968503924927107  0.9953355832689622  0.3546741880040082   T   T   T
  0.1092847177373457  0.1272695075612873  0.0964365835973027   F   F   F
  0.3907243854103017  0.6266385969044200  0.6024794716278520   T   T   T
  0.1095667955238966  0.3726955580326177  0.0968099838779750   F   F   F
  0.3903906438429878  0.8731408259549996  0.6023663457976071   T   T   T
  0.8916968746399199  0.8726600575809643  0.9041906018217347   T   T   T
  0.6094463353481103  0.3724903791514365  0.4041030939705479   F   F   F
  0.8916952801511370  0.6273572991733012  0.9042718119801915   T   T   T
  0.6093415448720165  0.1277301125548220  0.4036984695859047   F   F   F
  0.0831158064522981  0.0475367638911592  0.9436355226161766   F   F   F
  0.4173292660275929  0.5504839871279928  0.4441637817033691   T   T   T
  0.0832063262804468  0.4523622728011674  0.9439078800986493   F   F   F
  0.4170457735140564  0.9493526829089678  0.4436744237662707   T   T   T
  0.9189402963275973  0.9520807639378175  0.0558088657169971   T   T   T
  0.5828820438939957  0.4530521083333170  0.5552479485526902   F   F   F
  0.9189175005444364  0.5480131659432510  0.0559802834320747   T   T   T
  0.5826457122078494  0.0467943565332689  0.5552236094038676   F   F   F
  0.1297145275915881  0.0800050355645965  0.7634065445141545   F   F   F
  0.3713606766893481  0.5800170206507492  0.2610729389342250   T   T   T
  0.1296409355755301  0.4200077439580880  0.7637070015600713   F   F   F
  0.3715537293685479  0.9202425922185832  0.2595746525203685   T   T   T
  0.8712026296585863  0.9200067474199989  0.2346773019802259   T   T   T
  0.6292983552610991  0.4206555827942253  0.7355818942844010   F   F   F
  0.8710703359896704  0.5798646581163289  0.2349503618353205   T   T   T
  0.6293134552435262  0.0794738782718127  0.7352184972435154   F   F   F
  0.0751093319589746  0.9607117188210559  0.7922553498107319   T   T   T
  0.4241955452352073  0.4615971236102041  0.2948009981156190   F   F   F
  0.0750062562085784  0.5391469753615836  0.7921470331060914   T   T   T
  0.4242927418053242  0.0382811526582927  0.2945038415690249   F   F   F
  0.9247673447148230  0.0392227955014448  0.2066856333729277   F   F   F
  0.5731772383336952  0.5398290094347561  0.7051996099404816   T   T   T
  0.9246409451017144  0.4607068455758068  0.2067302642590931   F   F   F
  0.5731906924783818  0.9599890198452321  0.7056580068046077   T   T   T
  0.2161956722680145  0.1373791680397147  0.6463494485988264   F   F   F
  0.2805022833939425  0.6366570248622894  0.1475437712653102   T   T   T
  0.2161901003673066  0.3626026539578717  0.6463219347924749   F   F   F
  0.2796869636291677  0.8637626395340151  0.1473476429939906   T   T   T
  0.7893519687762571  0.8601607389986208  0.3528264096502277   T   T   T
  0.7150499600200177  0.3628293447158555  0.8534587065964274   F   F   F
  0.7891650051403921  0.6393061079114686  0.3532388801464826   T   T   T
  0.7148520591375558  0.1373352236586030  0.8533593488964826   F   F   F
  0.4975679979311905  0.8513557007354803  0.7163644723240408   T   T   T
  0.0036625558868408  0.3545673123447060  0.2132758682357974   F   F   F
  0.4977317269028433  0.6487220752402709  0.7164642448738868   T   T   T
  0.0035812025119881  0.1455699739030081  0.2132060861462222   F   F   F
  0.5035920090095019  0.1445697125949081  0.2864550886994408   F   F   F
  0.9977207462936706  0.6465910139144831  0.7871646809252858   T   T   T
  0.5037230350719071  0.3554797844124522  0.2864806700955285   F   F   F
  0.9975557386404367  0.8535081200533577  0.7866506390214942   T   T   T
  0.3812811719976143  0.8359139611759276  0.7945273220458673   T   T   T
  0.1209869427317685  0.3338268404653348  0.2872167123642768   F   F   F
  0.3814266357806323  0.6643829409317252  0.7942469367822519   T   T   T
  0.1209732786489468  0.1660093670964926  0.2870360137526262   F   F   F
  0.6210694059498252  0.1658366771729547  0.2130838078222155   F   F   F
  0.8808035765574799  0.6657264713088229  0.7140601671500475   T   T   T
  0.6211101646104922  0.3341932186091228  0.2131280067531378   F   F   F
  0.8805998558705295  0.8341526260913329  0.7140949091824671   T   T   T
  0.4204580825771337  0.7500825107673128  0.6553638889901995   T   T   T
  0.0746155441393412  0.2499958893002301  0.1492395937967288   F   F   F
  0.5738382492441758  0.2500235713713650  0.3499165347275266   F   F   F
  0.9260466804939664  0.7500108590618614  0.8526183969272222   T   T   T
  0.3147034193863000  0.8661103860816924  0.9570800089597009   T   T   T
  0.1831523223076204  0.3656218065654357  0.4547842910640938   F   F   F
  0.3150882918057493  0.6341214064041542  0.9570174651738548   T   T   T
  0.1830826412983981  0.1344961153780417  0.4546657396012321   F   F   F
  0.6830332872185352  0.1344316920881283  0.0453355799460695   F   F   F
  0.8217002192876269  0.6374156533219961  0.5453163809370770   T   T   T
  0.6830624303355037  0.3655736641163330  0.0455302878832597   F   F   F
  0.8217703317287427  0.8624944259600614  0.5452019541422347   T   T   T
  0.2508900589313513  0.8421862923574862  0.7880613825168937   T   T   T
  0.2514284082780307  0.3438650459867389  0.2887502280298122   F   F   F
  0.2509213063914879  0.6580648117116137  0.7882709850472907   T   T   T
  0.2513407976723201  0.1561962681992881  0.2887004106862037   F   F   F
  0.7513532475236460  0.1563133168799240  0.2106957115103398   F   F   F
  0.7506578016537389  0.6574518407752077  0.7099403215836820   T   T   T
  0.7513430828381615  0.3437491544734712  0.2108009591970443   F   F   F
  0.7504592668885413  0.8425765179847098  0.7097186171998496   T   T   T
  0.2956647308700041  0.7501174927041884  0.0523703684165783   T   T   T
  0.2037341210573018  0.2499503014878925  0.5473316272092248   F   F   F
  0.7036163900175865  0.2500477734500564  0.9524523938023606   F   F   F
  0.7799308875173884  0.7499227920314838  0.4585327628320242   T   T   T
  0.1941489698370873  0.8290042388352574  0.0061813529222287   T   T   T
  0.3040922154818091  0.3321189427230067  0.5063298781910035   F   F   F
  0.1944813259596612  0.6705964975566097  0.0064998764969373   T   T   T
  0.3040536362565689  0.1679365249701945  0.5061436805440422   F   F   F
  0.8036873090047436  0.1675508210305807  0.9919434331535086   F   F   F
  0.6977884624304878  0.6474478637877290  0.4940420478568536   T   T   T
  0.8037257471131412  0.3323788505925407  0.9923262440185212   F   F   F
  0.6979886646988960  0.8526710627024047  0.4938740468941344   T   T   T
  0.0893371068049667  0.7496599389967158  0.0224607659821693   T   T   T
  0.4070809662961707  0.2499382619285839  0.5234583374424133   F   F   F
  0.9068217999753330  0.2499682150376970  0.9771714325814784   F   F   F
  0.6158043230510029  0.7500666821683101  0.4777747945249495   T   T   T
  0.0801559800905987  0.8703023271676247  0.9368202706816883   T   T   T
  0.4196908900402505  0.3691300013869281  0.4361608331743128   F   F   F
  0.0806166697888804  0.6290462611375170  0.9369691954638646   T   T   T
  0.4196630054798831  0.1308097921291775  0.4361014114186545   F   F   F
  0.9187849858525965  0.1307559367288604  0.0643845595126749   F   F   F
  0.5785198251478466  0.6346844171444035  0.5647168591654526   T   T   T
  0.9189508494128376  0.3691900377686395  0.0643927114294200   F   F   F
  0.5787430744215502  0.8653976454711267  0.5649684092763017   T   T   T
  0.1236331145348791  0.8403324347279433  0.7517954817273040   T   T   T
  0.3782915750810076  0.3406065445696314  0.2497152053962637   F   F   F
  0.1237201880264758  0.6595045224187284  0.7518383604104072   T   T   T
  0.3782087698908967  0.1593810622123755  0.2496996865449432   F   F   F
  0.8780433584095206  0.1597497784012418  0.2513479687222926   F   F   F
  0.6240364293397556  0.6584142541989565  0.7506170804645754   T   T   T
  0.8780667981676373  0.3400598264388890  0.2512903919760348   F   F   F
  0.6238787817912796  0.8413463671777293  0.7508767943634613   T   T   T
  0.2006674801232653  0.7499967600315878  0.6663382398958225   T   T   T
  0.2996497379047653  0.2499585545326113  0.1676934308680202   F   F   F
  0.7990893847625244  0.2500657607296262  0.3330337656731146   F   F   F
  0.7016897574216246  0.7499640525914136  0.8324874592091428   T   T   T
  0.4244144502679745  0.0709328919723902  0.6884342446770191   F   F   F
  0.0762497266613180  0.5703833439551951  0.1893875097220973   T   T   T
  0.4242738388491532  0.4293839700422950  0.6883741236183738   F   F   F
  0.0763509211398465  0.9292645055325239  0.1892270158573442   T   T   T
  0.5759185111418739  0.9291824723610975  0.3112371486414644   T   T   T
  0.9246623890482581  0.4294605934360689  0.8116026174288109   F   F   F
  0.5758894791902667  0.5709038525813728  0.3109825469447864   T   T   T
  0.9245727812692053  0.0705429572556611  0.8114048440325377   F   F   F
  0.3223721510121393  0.0323588289591754  0.8431128892612989   F   F   F
  0.1782227356683450  0.5315222478656570  0.3438741314653827   T   T   T
  0.3224006148719027  0.4681806502900514  0.8429182406141393   F   F   F
  0.1783160936173127  0.9683658555718511  0.3438391806081634   T   T   T
  0.6782790599713300  0.9678452743990813  0.1575516610543063   T   T   T
  0.8223930710827219  0.4680633483710963  0.6573060965387967   F   F   F
  0.6781275437889177  0.5322139379355674  0.1575708567587015   T   T   T
  0.8222303558787516  0.0318439725345669  0.6570416580402423   F   F   F
  0.2777667997513475  0.0512567351623190  0.0613168962206601   F   F   F
  0.2228518898534601  0.5510994815220689  0.5618003830459007   T   T   T
  0.2779967170634166  0.4490015996293337  0.0615142333487739   F   F   F
  0.2226930115125408  0.9488123270775982  0.5615677056876036   T   T   T
  0.7233678530505547  0.9491134728624604  0.9384592826143922   T   T   T
  0.7779906859577963  0.4490919484770757  0.4388456474077387   F   F   F
  0.7233923923500428  0.5509449772687496  0.9386636135965424   T   T   T
  0.7777849023914385  0.0507479647519204  0.4387528614933345   F   F   F
  0.1223557950635410  0.0532728423856526  0.0485002562997892   F   F   F
  0.3782129597593811  0.5540744210934051  0.5492646305421847   T   T   T
  0.1225520230060226  0.4467520249824659  0.0487282881509472   F   F   F
  0.3780189740587107  0.9458166766948255  0.5488742262470694   T   T   T
  0.8786966325320423  0.9467140827579199  0.9518283756136087   T   T   T
  0.6226995250349603  0.4460908130112458  0.4518395404307824   F   F   F
  0.8786775628158896  0.5533303516142423  0.9520076449633148   T   T   T
  0.6225148303448762  0.0535231517380197  0.4511649620183107   F   F   F
  0.0727775060407581  0.0396546619185045  0.8238404294092163   F   F   F
  0.4275016792185717  0.5409385737097419  0.3244334111298139   T   T   T
  0.0728698354462836  0.4602906105370792  0.8241567844744608   F   F   F
  0.4273915969190473  0.9589428950616238  0.3240303473516278   T   T   T
  0.9281724326178140  0.9603336302905396  0.1755631879356408   T   T   T
  0.5722278043338775  0.4603467096164451  0.6756708365849562   F   F   F
  0.9279997296965655  0.5396090110047917  0.1757200460066947   T   T   T
  0.5722923359088838  0.0391883984765258  0.6753374239907046   F   F   F
  0.2015140085128877  0.0714929359595615  0.7133764282045547   F   F   F
  0.2987302690066045  0.5711198260987707  0.2144815781197427   T   T   T
  0.2015604835944060  0.4286433652522135  0.7135507103768930   F   F   F
  0.2985438939039759  0.9291116165862716  0.2142689698157850   T   T   T
  0.7998388497827954  0.9275674386439272  0.2868502544223386   T   T   T
  0.7013391394496722  0.4287792671787969  0.7861902832093364   F   F   F
  0.7996208645198103  0.5720528449098864  0.2868965005939441   T   T   T
  0.7012035082219015  0.0712440051451182  0.7858499242321386   F   F   F
  0.4229827184807278  0.8282730174878097  0.6914575011430130   T   T   T
  0.0769171874634083  0.3280591715669061  0.1860088513352167   F   F   F
  0.4232305658486199  0.6718573771349565  0.6911346231858302   T   T   T
  0.0767617134961611  0.1720017578003308  0.1858655821861390   F   F   F
  0.5767732223683026  0.1718586971173366  0.3139965607989623   F   F   F
  0.9243208904358741  0.6722110424238942  0.8153492470427541   T   T   T
  0.5766846873767051  0.3280382534617843  0.3139605974197863   F   F   F
  0.9242687019303347  0.8277776934007071  0.8152384794085465   T   T   T
  0.3168214784201395  0.8747477313209244  0.8363286985831015   T   T   T
  0.1832282282540518  0.3742234097576258  0.3339194264274639   F   F   F
  0.3170138455880489  0.6257130399232878  0.8361976424997353   T   T   T
  0.1831835611275352  0.1258892743839510  0.3338679296344154   F   F   F
  0.6835202846644606  0.1260002836860323  0.1659680204948089   F   F   F
  0.8186361080960203  0.6265440773631912  0.6655865362576654   T   T   T
  0.6835200969749522  0.3739842683188073  0.1659931960676104   F   F   F
  0.8185422909635314  0.8733567355654840  0.6654928646890257   T   T   T
  0.2706087762594934  0.8275887419218557  0.0402761649514437   T   T   T
  0.2270693439055691  0.3276722730126380  0.5390711766741845   F   F   F
  0.2709676267496383  0.6725721658614425  0.0402968968793989   T   T   T
  0.2270408187378834  0.1725157632604208  0.5388990603872799   F   F   F
  0.7268052545894079  0.1723570227845954  0.9604023340292329   F   F   F
  0.7720666572596943  0.6692264243337970  0.4624214719979843   T   T   T
  0.7269074992666589  0.3276056335971731  0.9606514617255044   F   F   F
  0.7722043335079329  0.8306249846043254  0.4622471128865387   T   T   T
  0.1152329652693481  0.8271334767947870  0.0248720761649701   T   T   T
  0.3826797542870821  0.3278358773607977  0.5247169101550213   F   F   F
  0.1155668443602544  0.6722951894650931  0.0250233543490416   T   T   T
  0.3826721914710589  0.1722167207303329  0.5246297886476015   F   F   F
  0.8827287487958841  0.1720340153218132  0.9752511134343109   F   F   F
  0.6213980610435096  0.6689026991572743  0.4757254662272958   T   T   T
  0.8827684159873996  0.3279364657005814  0.9753770117088081   F   F   F
  0.6216082161800213  0.8311787078046813  0.4759559203506288   T   T   T
  0.0696378188045794  0.8811049572348669  0.8171167826086063   T   T   T
  0.4309762565037332  0.3812434717359707  0.3172312778612465   F   F   F
  0.0697536285965859  0.6187255036602528  0.8172362548989494   T   T   T
  0.4310537114115860  0.1188513637259447  0.3171539861111867   F   F   F
  0.9308125557728104  0.1189287416962301  0.1834668500544581   F   F   F
  0.5691837433294202  0.6200764759995729  0.6836325191352549   T   T   T
  0.9309146100491077  0.3810279223472435  0.1834703332811145   F   F   F
  0.5691282292352067  0.8797321744350380  0.6838613572586146   T   T   T
  0.1957066808491839  0.8276183390738279  0.7029548028934203   T   T   T
  0.3054272718708688  0.3279347014347493  0.2027661300320531   F   F   F
  0.1957611260340476  0.6724041083575929  0.7029905823855706   T   T   T
  0.3054228264838983  0.1721807258953660  0.2027640146475704   F   F   F
  0.8052200694240739  0.1721471416540510  0.2976766302689242   F   F   F
  0.6966169981076556  0.6721203207438279  0.7968932945087808   T   T   T
  0.8053128063377386  0.3277053400113061  0.2975865054192823   F   F   F
  0.6965820438907244  0.8277659426841402  0.7968733324767895   T   T   T
  0.3535510230176293  0.7498172860101643  0.2608723107323639   T   T   T
  0.3704816762754189  0.7560952903170075  0.4246017531619349   T   T   T
  0.4701203247664018  0.7502675935342210  0.4311727908295878   T   T   T
  0.4450233664276728  0.7488739162619686  0.1960778910275878   T   T   T
  0.4964276194728311  0.7695693837374578  0.3658996211108947   T   T   T
  0.4838944538663204  0.7791893514510647  0.4981357119913313   T   T   T
  0.4820869607276073  0.6966586711607948  0.4423275224524740   T   T   T
  0.4346016861928804  0.7379137419067513  0.1165274285767328   T   T   T
  0.4682406883285118  0.7987640278375128  0.2027142358470043   T   T   T
  0.4775299088509763  0.7098128569017428  0.2266500865269412   T   T   T
 
  0.00000000E+00  0.00000000E+00  0.00000000E+00
  0.00000000E+00  0.00000000E+00  0.00000000E+00
  0.00000000E+00  0.00000000E+00  0.00000000E+00
  0.00000000E+00  0.00000000E+00  0.00000000E+00
  0.00000000E+00  0.00000000E+00  0.00000000E+00
  0.00000000E+00  0.00000000E+00  0.00000000E+00
  0.00000000E+00  0.00000000E+00  0.00000000E+00
  0.00000000E+00  0.00000000E+00  0.00000000E+00
  0.00000000E+00  0.00000000E+00  0.00000000E+00
  0.00000000E+00  0.00000000E+00  0.00000000E+00
  0.00000000E+00  0.00000000E+00  0.00000000E+00
  0.00000000E+00  0.00000000E+00  0.00000000E+00
  0.00000000E+00  0.00000000E+00  0.00000000E+00
  0.00000000E+00  0.00000000E+00  0.00000000E+00
  0.00000000E+00  0.00000000E+00  0.00000000E+00
  0.00000000E+00  0.00000000E+00  0.00000000E+00
  0.00000000E+00  0.00000000E+00  0.00000000E+00
  0.00000000E+00  0.00000000E+00  0.00000000E+00
  0.00000000E+00  0.00000000E+00  0.00000000E+00
  0.00000000E+00  0.00000000E+00  0.00000000E+00
  0.00000000E+00  0.00000000E+00  0.00000000E+00
  0.00000000E+00  0.00000000E+00  0.00000000E+00
  0.00000000E+00  0.00000000E+00  0.00000000E+00
  0.00000000E+00  0.00000000E+00  0.00000000E+00
  0.00000000E+00  0.00000000E+00  0.00000000E+00
  0.00000000E+00  0.00000000E+00  0.00000000E+00
  0.00000000E+00  0.00000000E+00  0.00000000E+00
  0.00000000E+00  0.00000000E+00  0.00000000E+00
  0.00000000E+00  0.00000000E+00  0.00000000E+00
  0.00000000E+00  0.00000000E+00  0.00000000E+00
  0.00000000E+00  0.00000000E+00  0.00000000E+00
  0.00000000E+00  0.00000000E+00  0.00000000E+00
  0.00000000E+00  0.00000000E+00  0.00000000E+00
  0.00000000E+00  0.00000000E+00  0.00000000E+00
  0.00000000E+00  0.00000000E+00  0.00000000E+00
  0.00000000E+00  0.00000000E+00  0.00000000E+00
  0.00000000E+00  0.00000000E+00  0.00000000E+00
  0.00000000E+00  0.00000000E+00  0.00000000E+00
  0.00000000E+00  0.00000000E+00  0.00000000E+00
  0.00000000E+00  0.00000000E+00  0.00000000E+00
  0.00000000E+00  0.00000000E+00  0.00000000E+00
  0.00000000E+00  0.00000000E+00  0.00000000E+00
  0.00000000E+00  0.00000000E+00  0.00000000E+00
  0.00000000E+00  0.00000000E+00  0.00000000E+00
  0.00000000E+00  0.00000000E+00  0.00000000E+00
  0.00000000E+00  0.00000000E+00  0.00000000E+00
  0.00000000E+00  0.00000000E+00  0.00000000E+00
  0.00000000E+00  0.00000000E+00  0.00000000E+00
  0.00000000E+00  0.00000000E+00  0.00000000E+00
  0.00000000E+00  0.00000000E+00  0.00000000E+00
  0.00000000E+00  0.00000000E+00  0.00000000E+00
  0.00000000E+00  0.00000000E+00  0.00000000E+00
  0.00000000E+00  0.00000000E+00  0.00000000E+00
  0.00000000E+00  0.00000000E+00  0.00000000E+00
  0.00000000E+00  0.00000000E+00  0.00000000E+00
  0.00000000E+00  0.00000000E+00  0.00000000E+00
  0.00000000E+00  0.00000000E+00  0.00000000E+00
  0.00000000E+00  0.00000000E+00  0.00000000E+00
  0.00000000E+00  0.00000000E+00  0.00000000E+00
  0.00000000E+00  0.00000000E+00  0.00000000E+00
  0.00000000E+00  0.00000000E+00  0.00000000E+00
  0.00000000E+00  0.00000000E+00  0.00000000E+00
  0.00000000E+00  0.00000000E+00  0.00000000E+00
  0.00000000E+00  0.00000000E+00  0.00000000E+00
  0.00000000E+00  0.00000000E+00  0.00000000E+00
  0.00000000E+00  0.00000000E+00  0.00000000E+00
  0.00000000E+00  0.00000000E+00  0.00000000E+00
  0.00000000E+00  0.00000000E+00  0.00000000E+00
  0.00000000E+00  0.00000000E+00  0.00000000E+00
  0.00000000E+00  0.00000000E+00  0.00000000E+00
  0.00000000E+00  0.00000000E+00  0.00000000E+00
  0.00000000E+00  0.00000000E+00  0.00000000E+00
  0.00000000E+00  0.00000000E+00  0.00000000E+00
  0.00000000E+00  0.00000000E+00  0.00000000E+00
  0.00000000E+00  0.00000000E+00  0.00000000E+00
  0.00000000E+00  0.00000000E+00  0.00000000E+00
  0.00000000E+00  0.00000000E+00  0.00000000E+00
  0.00000000E+00  0.00000000E+00  0.00000000E+00
  0.00000000E+00  0.00000000E+00  0.00000000E+00
  0.00000000E+00  0.00000000E+00  0.00000000E+00
  0.00000000E+00  0.00000000E+00  0.00000000E+00
  0.00000000E+00  0.00000000E+00  0.00000000E+00
  0.00000000E+00  0.00000000E+00  0.00000000E+00
  0.00000000E+00  0.00000000E+00  0.00000000E+00
  0.00000000E+00  0.00000000E+00  0.00000000E+00
  0.00000000E+00  0.00000000E+00  0.00000000E+00
  0.00000000E+00  0.00000000E+00  0.00000000E+00
  0.00000000E+00  0.00000000E+00  0.00000000E+00
  0.00000000E+00  0.00000000E+00  0.00000000E+00
  0.00000000E+00  0.00000000E+00  0.00000000E+00
  0.00000000E+00  0.00000000E+00  0.00000000E+00
  0.00000000E+00  0.00000000E+00  0.00000000E+00
  0.00000000E+00  0.00000000E+00  0.00000000E+00
  0.00000000E+00  0.00000000E+00  0.00000000E+00
  0.00000000E+00  0.00000000E+00  0.00000000E+00
  0.00000000E+00  0.00000000E+00  0.00000000E+00
  0.00000000E+00  0.00000000E+00  0.00000000E+00
  0.00000000E+00  0.00000000E+00  0.00000000E+00
  0.00000000E+00  0.00000000E+00  0.00000000E+00
  0.00000000E+00  0.00000000E+00  0.00000000E+00
  0.00000000E+00  0.00000000E+00  0.00000000E+00
  0.00000000E+00  0.00000000E+00  0.00000000E+00
  0.00000000E+00  0.00000000E+00  0.00000000E+00
  0.00000000E+00  0.00000000E+00  0.00000000E+00
  0.00000000E+00  0.00000000E+00  0.00000000E+00
  0.00000000E+00  0.00000000E+00  0.00000000E+00
  0.00000000E+00  0.00000000E+00  0.00000000E+00
  0.00000000E+00  0.00000000E+00  0.00000000E+00
  0.00000000E+00  0.00000000E+00  0.00000000E+00
  0.00000000E+00  0.00000000E+00  0.00000000E+00
  0.00000000E+00  0.00000000E+00  0.00000000E+00
  0.00000000E+00  0.00000000E+00  0.00000000E+00
  0.00000000E+00  0.00000000E+00  0.00000000E+00
  0.00000000E+00  0.00000000E+00  0.00000000E+00
  0.00000000E+00  0.00000000E+00  0.00000000E+00
  0.00000000E+00  0.00000000E+00  0.00000000E+00
  0.00000000E+00  0.00000000E+00  0.00000000E+00
  0.00000000E+00  0.00000000E+00  0.00000000E+00
  0.00000000E+00  0.00000000E+00  0.00000000E+00
  0.00000000E+00  0.00000000E+00  0.00000000E+00
  0.00000000E+00  0.00000000E+00  0.00000000E+00
  0.00000000E+00  0.00000000E+00  0.00000000E+00
  0.00000000E+00  0.00000000E+00  0.00000000E+00
  0.00000000E+00  0.00000000E+00  0.00000000E+00
  0.00000000E+00  0.00000000E+00  0.00000000E+00
  0.00000000E+00  0.00000000E+00  0.00000000E+00
  0.00000000E+00  0.00000000E+00  0.00000000E+00
  0.00000000E+00  0.00000000E+00  0.00000000E+00
  0.00000000E+00  0.00000000E+00  0.00000000E+00
  0.00000000E+00  0.00000000E+00  0.00000000E+00
  0.00000000E+00  0.00000000E+00  0.00000000E+00
  0.00000000E+00  0.00000000E+00  0.00000000E+00
  0.00000000E+00  0.00000000E+00  0.00000000E+00
  0.00000000E+00  0.00000000E+00  0.00000000E+00
  0.00000000E+00  0.00000000E+00  0.00000000E+00
  0.00000000E+00  0.00000000E+00  0.00000000E+00
  0.00000000E+00  0.00000000E+00  0.00000000E+00
  0.00000000E+00  0.00000000E+00  0.00000000E+00
  0.00000000E+00  0.00000000E+00  0.00000000E+00
  0.00000000E+00  0.00000000E+00  0.00000000E+00
  0.00000000E+00  0.00000000E+00  0.00000000E+00
  0.00000000E+00  0.00000000E+00  0.00000000E+00
  0.00000000E+00  0.00000000E+00  0.00000000E+00
  0.00000000E+00  0.00000000E+00  0.00000000E+00
  0.00000000E+00  0.00000000E+00  0.00000000E+00
  0.00000000E+00  0.00000000E+00  0.00000000E+00
  0.00000000E+00  0.00000000E+00  0.00000000E+00
  0.00000000E+00  0.00000000E+00  0.00000000E+00
  0.00000000E+00  0.00000000E+00  0.00000000E+00
  0.00000000E+00  0.00000000E+00  0.00000000E+00
  0.00000000E+00  0.00000000E+00  0.00000000E+00
  0.00000000E+00  0.00000000E+00  0.00000000E+00
  0.00000000E+00  0.00000000E+00  0.00000000E+00
  0.00000000E+00  0.00000000E+00  0.00000000E+00
  0.00000000E+00  0.00000000E+00  0.00000000E+00
  0.00000000E+00  0.00000000E+00  0.00000000E+00
  0.00000000E+00  0.00000000E+00  0.00000000E+00
  0.00000000E+00  0.00000000E+00  0.00000000E+00
  0.00000000E+00  0.00000000E+00  0.00000000E+00
  0.00000000E+00  0.00000000E+00  0.00000000E+00
  0.00000000E+00  0.00000000E+00  0.00000000E+00