 O Si Ru                                
   1.00000000000000     
    20.3096463179830877    0.0000000000000000    0.0000000000000000
     0.0000000000000000   19.8625212307842212    0.0000000000000000
     0.0000000000000000    0.0000000000000000   13.3711533343531652
   O    Si   Ru
   192    96     2
Selective dynamics
Direct
  0.5029151419623901  0.0735660596726220  0.7069316305773725   T   T   T
  0.9975465120921569  0.5722056013321435  0.2087406600889281   T   T   T
  0.5029625376940245  0.4265088223227380  0.7071140439527213   T   T   T
  0.9975049120642510  0.9275859515950557  0.2084007766859557   T   T   T
  0.4975879580216116  0.9278162892634683  0.2901253529247896   T   T   T
  0.0032184386695491  0.4269330484855089  0.7921409749159594   T   T   T
  0.4977203592960961  0.5720242044357065  0.2903984015411680   T   T   T
  0.0031941412613889  0.0729668753257329  0.7917158063303020   T   T   T
  0.3878579723645430  0.0669556667519231  0.7965548156122182   T   T   T
  0.1133759987999525  0.5681642766849038  0.2964373645987877   T   T   T
  0.3878584358486918  0.4330437684886519  0.7965742164748164   T   T   T
  0.1132329058698858  0.9319445967047386  0.2964166833211408   T   T   T
  0.6133965873321117  0.9317919180189946  0.2029169050037538   T   T   T
  0.8876973671888919  0.4327342034956771  0.7036508835393036   T   T   T
  0.6135821534334056  0.5682784344751042  0.2033449439821382   T   T   T
  0.8876117469000917  0.0673661435016157  0.7035018781795443   T   T   T
  0.4009161058478412  0.1389419031021148  0.6318180153029829   T   T   T
  0.0977430998124333  0.6392736437066731  0.1312597135815210   T   T   T
  0.4010424696537882  0.3610528181545121  0.6318133081225312   T   T   T
  0.0980103952821665  0.8607652253088176  0.1312529147886039   T   T   T
  0.5980442772435381  0.8613047032151826  0.3687325904177214   T   T   T
  0.9019278058779037  0.3610410398314983  0.8685731531220142   T   T   T
  0.5979555509202541  0.6388098794708483  0.3690430687548556   T   T   T
  0.9020589687179950  0.1389418631131747  0.8685141393728202   T   T   T
  0.4059805669348791  0.0047442563955897  0.6216751015979938   T   T   T
  0.0951764573732916  0.5048736608876467  0.1227496371721131   T   T   T
  0.4060063268505516  0.4952757309538711  0.6217644002593659   T   T   T
  0.0951038165614122  0.9951250008962731  0.1225611438304313   T   T   T
  0.5948055133848626  0.9957484977599123  0.3757295479997822   T   T   T
  0.9063174878259801  0.4953848205285425  0.8779651251188270   T   T   T
  0.5950752590078494  0.5043549968709016  0.3761727772273389   T   T   T
  0.9063218528932850  0.0045785558899212  0.8776992153014049   T   T   T
  0.3240114434950669  0.0382407076679172  0.9638230470655600   T   T   T
  0.1763485455368254  0.5378781522500660  0.4641542393044347   T   T   T
  0.3240639192643968  0.4618354887910741  0.9638665486159397   T   T   T
  0.1763672350880796  0.9620523319374072  0.4640606733161263   T   T   T
  0.6766165288593484  0.9620156982005810  0.0358890148913247   T   T   T
  0.8239264782183469  0.4615726959520288  0.5363529546552854   T   T   T
  0.6766273407468262  0.5380862158563389  0.0360413412402991   T   T   T
  0.8238113343158346  0.0383815205381524  0.5362542402135873   T   T   T
  0.3216922738839330  0.9534421701159914  0.8071307884330139   T   T   T
  0.1776758631529702  0.4534601678782408  0.3068976961336460   T   T   T
  0.3217291042216033  0.5466230856040681  0.8071625387420625   T   T   T
  0.1777392319065001  0.0465284403162727  0.3069405612850815   T   T   T
  0.6782953929680886  0.0464276494116262  0.1929820249193881   T   T   T
  0.8214903320832505  0.5463853187552132  0.6930224919608605   T   T   T
  0.6783411531563246  0.4536225664016982  0.1930928964972622   T   T   T
  0.8214980035068820  0.9536773181731206  0.6930475165374332   T   T   T
  0.2563457342386215  0.0684226129951071  0.8017762481607349   T   T   T
  0.2448952522016867  0.5671912581414134  0.3029801725596926   T   T   T
  0.2563604704749665  0.4316428390570621  0.8018556833268136   T   T   T
  0.2447655750352880  0.9326962002504473  0.3027215993959160   T   T   T
  0.7448918397443336  0.9321961120306383  0.1975057498879522   T   T   T
  0.7562410131176875  0.4314383528184749  0.6983979119208144   T   T   T
  0.7450790913829763  0.5677876932779427  0.1974180494790900   T   T   T
  0.7561874466482195  0.0686029683221889  0.6982838657223311   T   T   T
  0.2923457530791964  0.1261305060343005  0.1042687178754136   T   T   T
  0.2084869680680441  0.6260258117408810  0.6042332072414567   T   T   T
  0.2924222850649301  0.3739550916486252  0.1043750301760937   T   T   T
  0.2083634709778082  0.8739875915707316  0.6042150270120175   T   T   T
  0.7087980788512169  0.8739192040793924  0.8958919737509774   T   T   T
  0.7920626114484861  0.3741440791997874  0.3955590558159940   T   T   T
  0.7088285788396078  0.6261899380044227  0.8960287356991046   T   T   T
  0.7918328172678528  0.1258395964698522  0.3955348022627305   T   T   T
  0.2009180106485928  0.0428348962614322  0.0293984412057924   T   T   T
  0.2996968197579477  0.5426935160259490  0.5294112209858000   T   T   T
  0.2010372834083469  0.4573071122565651  0.0296181964629270   T   T   T
  0.2997124980964472  0.9572001258237819  0.5293681352781334   T   T   T
  0.7996560600053897  0.9580423497828079  0.9700594430030947   T   T   T
  0.7007908648720971  0.4573025797676209  0.4705712418615562   T   T   T
  0.7997060817570443  0.5420944581861136  0.9703302267615257   T   T   T
  0.7006462591275380  0.0424959606184885  0.4703037048025678   T   T   T
  0.2965493550864409  0.9965923686744844  0.1466848284870466   T   T   T
  0.2042062705839172  0.4967531181442908  0.6471179485467573   T   T   T
  0.2967512456497943  0.5034965594674716  0.1468170404423290   T   T   T
  0.2042827147657746  0.0033044922153636  0.6469642495983621   T   T   T
  0.7035695737600207  0.0031082455789999  0.8524917251822970   T   T   T
  0.7966009577419371  0.5038039927924629  0.3537093559489008   T   T   T
  0.7037483821235924  0.4970039567455018  0.8526551329040757   T   T   T
  0.7966624191072995  0.9962088678741239  0.3535649955711477   T   T   T
  0.1093131791865716  0.1272507473097590  0.0964945470806668   T   T   T
  0.3907541144559374  0.6270449256934540  0.5993007602161455   T   T   T
  0.1096159065423521  0.3727429065902896  0.0968433397711834   T   T   T
  0.3909445636526243  0.8729834497465205  0.5990477336781055   T   T   T
  0.8903159487235683  0.8727319470100667  0.9024185553090760   T   T   T
  0.6094185792695015  0.3723840888363128  0.4038542259655458   T   T   T
  0.8903827125823867  0.6272617833779108  0.9024496089175216   T   T   T
  0.6094041022901209  0.1276315479534134  0.4037605891893747   T   T   T
  0.0831048349475765  0.0475109685477975  0.9435687042287597   T   T   T
  0.4176871806418063  0.5499813561623768  0.4438436836473443   T   T   T
  0.0831856777148303  0.4523523729842580  0.9438997465468049   T   T   T
  0.4176278228369199  0.9501320282719448  0.4435974822853055   T   T   T
  0.9172918951703224  0.9512357810987382  0.0563867473567043   T   T   T
  0.5827906879946028  0.4530925389524398  0.5556375829759830   T   T   T
  0.9173413997613409  0.5488456328287370  0.0565855780411937   T   T   T
  0.5826187119468287  0.0467912904197689  0.5553540539617146   T   T   T
  0.1296231040844802  0.0799627804154994  0.7634423203244225   T   T   T
  0.3713805715389924  0.5807279038530382  0.2623249302738841   T   T   T
  0.1296318253701898  0.4200410798835748  0.7636759413020187   T   T   T
  0.3712567350687550  0.9193600220311566  0.2620617006226169   T   T   T
  0.8712757310977253  0.9195104078438234  0.2371888406762395   T   T   T
  0.6292993944101113  0.4207916246772925  0.7356744224965155   T   T   T
  0.8713626048482652  0.5804791718471378  0.2374900436238292   T   T   T
  0.6292492851724560  0.0793042870953116  0.7352598947508895   T   T   T
  0.0748588083345538  0.9607594903769154  0.7919771976290164   T   T   T
  0.4241131313273669  0.4613752091790673  0.2948144036777691   T   T   T
  0.0748028995871124  0.5391836990524368  0.7923195950701611   T   T   T
  0.4241964469789892  0.0386462131336458  0.2945780170194396   T   T   T
  0.9248077689555814  0.0391348004589247  0.2067119060627078   T   T   T
  0.5730250382433582  0.5395395133105296  0.7075292341394857   T   T   T
  0.9246677977408950  0.4608033835361240  0.2067758124953869   T   T   T
  0.5729692089158149  0.9605454921538836  0.7075250596659401   T   T   T
  0.2161824121332003  0.1373904738735874  0.6463271447778780   T   T   T
  0.2834636880428292  0.6373423287702664  0.1474453287622737   T   T   T
  0.2161517510064428  0.3626744318723070  0.6464343906898762   T   T   T
  0.2833718064283914  0.8627017093388716  0.1471270234583599   T   T   T
  0.7836013389799348  0.8622202332874807  0.3529809328931179   T   T   T
  0.7150253360603145  0.3628167424777686  0.8534947758407938   T   T   T
  0.7835422008692987  0.6377857348236518  0.3530219686603004   T   T   T
  0.7148261493384283  0.1372886464544649  0.8532633160024901   T   T   T
  0.4971166322671436  0.8519875998522153  0.7151020646149959   T   T   T
  0.0036584267006603  0.3545747407892605  0.2132407109572441   T   T   T
  0.4969303868040669  0.6479448491328696  0.7153900523302710   T   T   T
  0.0035385368081577  0.1455500153788094  0.2131493366729131   T   T   T
  0.5037287630216625  0.1445781717231256  0.2864470147087275   T   T   T
  0.9967811765767465  0.6462525873503537  0.7871326365493729   T   T   T
  0.5037707510527198  0.3555116669135501  0.2864961434610791   T   T   T
  0.9968303840149275  0.8537312848766874  0.7872668469836057   T   T   T
  0.3794074481985916  0.8341328394924119  0.7898594808244113   T   T   T
  0.1210268688035399  0.3338110613837486  0.2872208120334179   T   T   T
  0.3792395775635669  0.6660707127198933  0.7900325284662983   T   T   T
  0.1209586482013023  0.1660553506375635  0.2869694551628612   T   T   T
  0.6210864063625010  0.1658884040414250  0.2130439895052163   T   T   T
  0.8798121357915960  0.6652792432526908  0.7112846188400468   T   T   T
  0.6211110157533284  0.3341538800550268  0.2131485949028544   T   T   T
  0.8799878667857897  0.8348440987374630  0.7111684047795706   T   T   T
  0.4227250717957531  0.7500090672088930  0.6494393250933044   T   T   T
  0.0746191832608716  0.2500230315661014  0.1491574075772419   T   T   T
  0.5737535633323603  0.2500033269389590  0.3499372146450668   T   T   T
  0.9242042391637142  0.7500140922425373  0.8495874435596065   T   T   T
  0.3159489795919654  0.8658875446372036  0.9556232952821091   T   T   T
  0.1831382099758727  0.3656193254218110  0.4546788161282862   T   T   T
  0.3158743943605771  0.6340187351338713  0.9558006526856175   T   T   T
  0.1830710617180671  0.1345150281137819  0.4545914900688217   T   T   T
  0.6830517762348904  0.1344874634880142  0.0452736917138168   T   T   T
  0.8164566230256298  0.6340226486628282  0.5446209164810440   T   T   T
  0.6830854472072687  0.3655253709567745  0.0454288807432022   T   T   T
  0.8164964655029650  0.8660661869018327  0.5445823533478062   T   T   T
  0.2489873669411224  0.8433816055228789  0.7888284850374490   T   T   T
  0.2513284304882717  0.3439160443049900  0.2888596437238746   T   T   T
  0.2488509216711137  0.6566147656119270  0.7890449853729677   T   T   T
  0.2512496259875334  0.1561531436267387  0.2887659973841181   T   T   T
  0.7514064122389215  0.1563514770940770  0.2107774734307739   T   T   T
  0.7494120189094104  0.6568198273629164  0.7112615180253812   T   T   T
  0.7514333991542230  0.3437018738677295  0.2109204239965408   T   T   T
  0.7496100311469718  0.8431495028139153  0.7113061537716092   T   T   T
  0.2977675935720114  0.7499752942230629  0.0492412172106214   T   T   T
  0.2037513614112356  0.2500402232570522  0.5473130572547689   T   T   T
  0.7036288451255430  0.2500227799147439  0.9524367183681051   T   T   T
  0.7952392961980976  0.7500316941432814  0.4534651264550504   T   T   T
  0.1957603613655721  0.8299608253341262  0.0077334089670060   T   T   T
  0.3039760542072045  0.3321511197779401  0.5063204852821102   T   T   T
  0.1957341984865764  0.6699224685795855  0.0081918502400669   T   T   T
  0.3039535270350342  0.1678850199576374  0.5061614664230731   T   T   T
  0.8037674365760594  0.1675499430433049  0.9919476301601620   T   T   T
  0.6954036880791321  0.6671525329255559  0.4935708403909871   T   T   T
  0.8038193000716305  0.3323998958156906  0.9923103515000236   T   T   T
  0.6954271653114077  0.8329890979264007  0.4934786443339263   T   T   T
  0.0911430098955677  0.7500196740491418  0.0216097042631347   T   T   T
  0.4070684857934594  0.2499810289984339  0.5234879823940233   T   T   T
  0.9068306617426174  0.2499858845960929  0.9771434341541791   T   T   T
  0.5929540483968765  0.7501056049942747  0.4780409918539945   T   T   T
  0.0817758231076553  0.8700477936124216  0.9354317104892829   T   T   T
  0.4196731292247478  0.3690835510139365  0.4362494260570955   T   T   T
  0.0817810231825575  0.6300981392465772  0.9353479540604752   T   T   T
  0.4196318579545562  0.1308483549065897  0.4362280688829117   T   T   T
  0.9187871414795694  0.1307480475178480  0.0643944961597001   T   T   T
  0.5799695599017056  0.6309607679235540  0.5649043401493756   T   T   T
  0.9189813415853791  0.3691962182345989  0.0643979391319860   T   T   T
  0.5800598887008306  0.8693818997055658  0.5645852735730372   T   T   T
  0.1222548208672123  0.8402783602691528  0.7487482089773181   T   T   T
  0.3782191667140111  0.3406282260943811  0.2495822814269246   T   T   T
  0.1221930552598280  0.6596150179784956  0.7485139472776368   T   T   T
  0.3781398319688947  0.1593484212036174  0.2495850342034558   T   T   T
  0.8780772199561611  0.1597428608575626  0.2513021010905376   T   T   T
  0.6226545113741011  0.6591439890787640  0.7512274651964503   T   T   T
  0.8781527669198397  0.3400969411418018  0.2511874583142415   T   T   T
  0.6228249502060947  0.8409673008936096  0.7508236829466455   T   T   T
  0.2010385669314658  0.7499953249552007  0.6668839256582686   T   T   T
  0.2996637301077030  0.2500277610362360  0.1677077677577756   T   T   T
  0.7990848778479602  0.2499825440223233  0.3330224582314472   T   T   T
  0.7007502498209206  0.7500393387326767  0.8331158062592365   T   T   T
  0.4243120677247703  0.0706248793323780  0.6882720414480872   T   T   T
  0.0760515629478533  0.5707141827737630  0.1887833199971851   T   T   T
  0.4243642501694112  0.4293781953153299  0.6883255931551702   T   T   T
  0.0760434303057735  0.9292910449230902  0.1886674989818431   T   T   T
  0.5760030994374716  0.9293456237839379  0.3105165880324918   T   T   T
  0.9246233627582825  0.4294307430317730  0.8116017276557059   T   T   T
  0.5761242863364586  0.5706873103235637  0.3109170475815333   T   T   T
  0.9246201416023538  0.0705567486414296  0.8113905219130189   T   T   T
  0.3223819734165474  0.0318316953936488  0.8430151480515420   T   T   T
  0.1780452314772205  0.5317164602638726  0.3432883448099062   T   T   T
  0.3224146420772769  0.4682209026483264  0.8430421287326908   T   T   T
  0.1780020947353691  0.9682480608466690  0.3432016038694314   T   T   T
  0.6783091662622667  0.9681055063697386  0.1567943926033593   T   T   T
  0.8222945580976031  0.4680597921700667  0.6571628257407198   T   T   T
  0.6784011481407290  0.5319538700143198  0.1569513425766544   T   T   T
  0.8222309627981090  0.0319692201244450  0.6570775164942972   T   T   T
  0.2779123087333701  0.0511264612777964  0.0613109493893447   T   T   T
  0.2226568316635706  0.5510577151876532  0.5612541371714030   T   T   T
  0.2780423512307522  0.4489808195105951  0.0614569707557564   T   T   T
  0.2226650610368353  0.9489150357942577  0.5611803582555339   T   T   T
  0.7226643440543015  0.9491402001635478  0.9384494704457254   T   T   T
  0.7778141510926559  0.4491288428941544  0.4387963766751781   T   T   T
  0.7227333495790305  0.5509907875996660  0.9386600761461779   T   T   T
  0.7777079553616204  0.0507975122443085  0.4386758489674847   T   T   T
  0.1224574189986996  0.0532732866075847  0.0483851064646856   T   T   T
  0.3779769887972222  0.5535711134250292  0.5484128788570217   T   T   T
  0.1226107360804676  0.4467220309073738  0.0486672413644982   T   T   T
  0.3780259816766858  0.9464643958451120  0.5482505132101991   T   T   T
  0.8779908886253480  0.9466073617011972  0.9514026227982910   T   T   T
  0.6224157232441314  0.4466922016762993  0.4511188640456680   T   T   T
  0.8780396312731398  0.5534298767382921  0.9515768464672476   T   T   T
  0.6222660347702487  0.0532503084769687  0.4508426119537319   T   T   T
  0.0728412340832634  0.0397062233897643  0.8238019586723624   T   T   T
  0.4277437962122690  0.5407555480855848  0.3241855554615896   T   T   T
  0.0728651157205249  0.4602342044834629  0.8241694721060924   T   T   T
  0.4276795117178338  0.9592510502167002  0.3239009308896499   T   T   T
  0.9275452390571814  0.9600147782953172  0.1760336201635795   T   T   T
  0.5722872311394767  0.4606056157916711  0.6753226260991951   T   T   T
  0.9275541845522710  0.5399426299954300  0.1762338123948481   T   T   T
  0.5722002755176163  0.0394245703525797  0.6750904917086089   T   T   T
  0.2016626826565684  0.0714697559756701  0.7134550092025691   T   T   T
  0.2988993987442186  0.5712898499085739  0.2141871586954238   T   T   T
  0.2016336523030233  0.4285870286521600  0.7135974393340589   T   T   T
  0.2987738169214609  0.9287386606023418  0.2139019900574581   T   T   T
  0.7990369044939811  0.9282528397036316  0.2864960671119903   T   T   T
  0.7012003299792298  0.4288186369106910  0.7861858612953654   T   T   T
  0.7990674709343182  0.5717379632341064  0.2865965737987679   T   T   T
  0.7010838455696202  0.0712665571672204  0.7859514996808130   T   T   T
  0.4230803572218349  0.8282142447918659  0.6885938618811736   T   T   T
  0.0769156502417161  0.3279886870119242  0.1860147788485307   T   T   T
  0.4229404597137290  0.6718507245469780  0.6887759286227251   T   T   T
  0.0768112818279434  0.1720160537428654  0.1858265876985072   T   T   T
  0.5767129546629590  0.1718671486741741  0.3139569590465925   T   T   T
  0.9230684209553957  0.6719672006372761  0.8132267466512317   T   T   T
  0.5767212789286447  0.3281510196691713  0.3140415784961021   T   T   T
  0.9230939196405430  0.8280626287152586  0.8132382220498471   T   T   T
  0.3163148394013646  0.8742033364015285  0.8348974165515415   T   T   T
  0.1833074541364965  0.3740495101119237  0.3339202901998917   T   T   T
  0.3162339934512772  0.6258460276752231  0.8350478464760016   T   T   T
  0.1832639004326140  0.1259627486727979  0.3338573048679194   T   T   T
  0.6834029271010706  0.1259062829963540  0.1659798546337825   T   T   T
  0.8168235359896769  0.6257710106890144  0.6653713161706065   T   T   T
  0.6834285715484469  0.3741454557802228  0.1661310163765606   T   T   T
  0.8169468062195051  0.8742967362801792  0.6653433533018571   T   T   T
  0.2725983594613837  0.8272119891787639  0.0400037962140516   T   T   T
  0.2271237881017711  0.3276058948125495  0.5390136658916944   T   T   T
  0.2726100738883943  0.6727144557304143  0.0402633649801487   T   T   T
  0.2271202873219309  0.1724799435127480  0.5389173023724467   T   T   T
  0.7267472501634842  0.1723610876501098  0.9604303881170466   T   T   T
  0.7721623647435507  0.6723229612336823  0.4608089531816759   T   T   T
  0.7268216124557796  0.3276504608084423  0.9606404345553159   T   T   T
  0.7721850601214939  0.8277495237971593  0.4608029837097760   T   T   T
  0.1166941534923609  0.8275313151115569  0.0243692527028117   T   T   T
  0.3827581189327915  0.3278378273251619  0.5246491080329818   T   T   T
  0.1166468603405590  0.6724859258264786  0.0244614942497989   T   T   T
  0.3827275409154680  0.1721328363621524  0.5246189896410982   T   T   T
  0.8826748189633378  0.1720728385653771  0.9752648999179740   T   T   T
  0.6164997609154170  0.6721132111551285  0.4758286273089212   T   T   T
  0.8827059240094073  0.3279195982384806  0.9753863353167560   T   T   T
  0.6165362706679929  0.8280815607558125  0.4756022247454723   T   T   T
  0.0693407577006724  0.8810421666813610  0.8162578225908419   T   T   T
  0.4310362713513314  0.3815536136468793  0.3171561254436810   T   T   T
  0.0692967740442327  0.6189585498739021  0.8162128883051594   T   T   T
  0.4310160210270055  0.1184563301937942  0.3171106125946963   T   T   T
  0.9308107186515571  0.1189823214311971  0.1834600447849795   T   T   T
  0.5688720957721642  0.6194391954130012  0.6841023730205080   T   T   T
  0.9308747943928353  0.3809922836910218  0.1834914197417490   T   T   T
  0.5689823883033043  0.8806830137000432  0.6838246963809596   T   T   T
  0.1949969754662106  0.8277348206112123  0.7021045042902188   T   T   T
  0.3055343881691073  0.3279008594260304  0.2027792002935414   T   T   T
  0.1949963969994783  0.6722605858140156  0.7021049615373371   T   T   T
  0.3054784587058776  0.1721382358153463  0.2027155232773481   T   T   T
  0.8051754997750677  0.1721935395061607  0.2975943809345409   T   T   T
  0.6953525553879132  0.6722127344469087  0.7977920954737172   T   T   T
  0.8052597360911449  0.3277658206369907  0.2976066237846595   T   T   T
  0.6954291205277556  0.8278479036447521  0.7976800610762211   T   T   T
  0.3767732000104971  0.7500123500065001  0.2789301182942410   T   T   T
  0.3980025050937570  0.7499420072505600  0.4446805483669038   T   T   T
 
  0.00000000E+00  0.00000000E+00  0.00000000E+00
  0.00000000E+00  0.00000000E+00  0.00000000E+00
  0.00000000E+00  0.00000000E+00  0.00000000E+00
  0.00000000E+00  0.00000000E+00  0.00000000E+00
  0.00000000E+00  0.00000000E+00  0.00000000E+00
  0.00000000E+00  0.00000000E+00  0.00000000E+00
  0.00000000E+00  0.00000000E+00  0.00000000E+00
  0.00000000E+00  0.00000000E+00  0.00000000E+00
  0.00000000E+00  0.00000000E+00  0.00000000E+00
  0.00000000E+00  0.00000000E+00  0.00000000E+00
  0.00000000E+00  0.00000000E+00  0.00000000E+00
  0.00000000E+00  0.00000000E+00  0.00000000E+00
  0.00000000E+00  0.00000000E+00  0.00000000E+00
  0.00000000E+00  0.00000000E+00  0.00000000E+00
  0.00000000E+00  0.00000000E+00  0.00000000E+00
  0.00000000E+00  0.00000000E+00  0.00000000E+00
  0.00000000E+00  0.00000000E+00  0.00000000E+00
  0.00000000E+00  0.00000000E+00  0.00000000E+00
  0.00000000E+00  0.00000000E+00  0.00000000E+00
  0.00000000E+00  0.00000000E+00  0.00000000E+00
  0.00000000E+00  0.00000000E+00  0.00000000E+00
  0.00000000E+00  0.00000000E+00  0.00000000E+00
  0.00000000E+00  0.00000000E+00  0.00000000E+00
  0.00000000E+00  0.00000000E+00  0.00000000E+00
  0.00000000E+00  0.00000000E+00  0.00000000E+00
  0.00000000E+00  0.00000000E+00  0.00000000E+00
  0.00000000E+00  0.00000000E+00  0.00000000E+00
  0.00000000E+00  0.00000000E+00  0.00000000E+00
  0.00000000E+00  0.00000000E+00  0.00000000E+00
  0.00000000E+00  0.00000000E+00  0.00000000E+00
  0.00000000E+00  0.00000000E+00  0.00000000E+00
  0.00000000E+00  0.00000000E+00  0.00000000E+00
  0.00000000E+00  0.00000000E+00  0.00000000E+00
  0.00000000E+00  0.00000000E+00  0.00000000E+00
  0.00000000E+00  0.00000000E+00  0.00000000E+00
  0.00000000E+00  0.00000000E+00  0.00000000E+00
  0.00000000E+00  0.00000000E+00  0.00000000E+00
  0.00000000E+00  0.00000000E+00  0.00000000E+00
  0.00000000E+00  0.00000000E+00  0.00000000E+00
  0.00000000E+00  0.00000000E+00  0.00000000E+00
  0.00000000E+00  0.00000000E+00  0.00000000E+00
  0.00000000E+00  0.00000000E+00  0.00000000E+00
  0.00000000E+00  0.00000000E+00  0.00000000E+00
  0.00000000E+00  0.00000000E+00  0.00000000E+00
  0.00000000E+00  0.00000000E+00  0.00000000E+00
  0.00000000E+00  0.00000000E+00  0.00000000E+00
  0.00000000E+00  0.00000000E+00  0.00000000E+00
  0.00000000E+00  0.00000000E+00  0.00000000E+00
  0.00000000E+00  0.00000000E+00  0.00000000E+00
  0.00000000E+00  0.00000000E+00  0.00000000E+00
  0.00000000E+00  0.00000000E+00  0.00000000E+00
  0.00000000E+00  0.00000000E+00  0.00000000E+00
  0.00000000E+00  0.00000000E+00  0.00000000E+00
  0.00000000E+00  0.00000000E+00  0.00000000E+00
  0.00000000E+00  0.00000000E+00  0.00000000E+00
  0.00000000E+00  0.00000000E+00  0.00000000E+00
  0.00000000E+00  0.00000000E+00  0.00000000E+00
  0.00000000E+00  0.00000000E+00  0.00000000E+00
  0.00000000E+00  0.00000000E+00  0.00000000E+00
  0.00000000E+00  0.00000000E+00  0.00000000E+00
  0.00000000E+00  0.00000000E+00  0.00000000E+00
  0.00000000E+00  0.00000000E+00  0.00000000E+00
  0.00000000E+00  0.00000000E+00  0.00000000E+00
  0.00000000E+00  0.00000000E+00  0.00000000E+00
  0.00000000E+00  0.00000000E+00  0.00000000E+00
  0.00000000E+00  0.00000000E+00  0.00000000E+00
  0.00000000E+00  0.00000000E+00  0.00000000E+00
  0.00000000E+00  0.00000000E+00  0.00000000E+00
  0.00000000E+00  0.00000000E+00  0.00000000E+00
  0.00000000E+00  0.00000000E+00  0.00000000E+00
  0.00000000E+00  0.00000000E+00  0.00000000E+00
  0.00000000E+00  0.00000000E+00  0.00000000E+00
  0.00000000E+00  0.00000000E+00  0.00000000E+00
  0.00000000E+00  0.00000000E+00  0.00000000E+00
  0.00000000E+00  0.00000000E+00  0.00000000E+00
  0.00000000E+00  0.00000000E+00  0.00000000E+00
  0.00000000E+00  0.00000000E+00  0.00000000E+00
  0.00000000E+00  0.00000000E+00  0.00000000E+00
  0.00000000E+00  0.00000000E+00  0.00000000E+00
  0.00000000E+00  0.00000000E+00  0.00000000E+00
  0.00000000E+00  0.00000000E+00  0.00000000E+00
  0.00000000E+00  0.00000000E+00  0.00000000E+00
  0.00000000E+00  0.00000000E+00  0.00000000E+00
  0.00000000E+00  0.00000000E+00  0.00000000E+00
  0.00000000E+00  0.00000000E+00  0.00000000E+00
  0.00000000E+00  0.00000000E+00  0.00000000E+00
  0.00000000E+00  0.00000000E+00  0.00000000E+00
  0.00000000E+00  0.00000000E+00  0.00000000E+00
  0.00000000E+00  0.00000000E+00  0.00000000E+00
  0.00000000E+00  0.00000000E+00  0.00000000E+00
  0.00000000E+00  0.00000000E+00  0.00000000E+00
  0.00000000E+00  0.00000000E+00  0.00000000E+00
  0.00000000E+00  0.00000000E+00  0.00000000E+00
  0.00000000E+00  0.00000000E+00  0.00000000E+00
  0.00000000E+00  0.00000000E+00  0.00000000E+00
  0.00000000E+00  0.00000000E+00  0.00000000E+00
  0.00000000E+00  0.00000000E+00  0.00000000E+00
  0.00000000E+00  0.00000000E+00  0.00000000E+00
  0.00000000E+00  0.00000000E+00  0.00000000E+00
  0.00000000E+00  0.00000000E+00  0.00000000E+00
  0.00000000E+00  0.00000000E+00  0.00000000E+00
  0.00000000E+00  0.00000000E+00  0.00000000E+00
  0.00000000E+00  0.00000000E+00  0.00000000E+00
  0.00000000E+00  0.00000000E+00  0.00000000E+00
  0.00000000E+00  0.00000000E+00  0.00000000E+00
  0.00000000E+00  0.00000000E+00  0.00000000E+00
  0.00000000E+00  0.00000000E+00  0.00000000E+00
  0.00000000E+00  0.00000000E+00  0.00000000E+00
  0.00000000E+00  0.00000000E+00  0.00000000E+00
  0.00000000E+00  0.00000000E+00  0.00000000E+00
  0.00000000E+00  0.00000000E+00  0.00000000E+00
  0.00000000E+00  0.00000000E+00  0.00000000E+00
  0.00000000E+00  0.00000000E+00  0.00000000E+00
  0.00000000E+00  0.00000000E+00  0.00000000E+00
  0.00000000E+00  0.00000000E+00  0.00000000E+00
  0.00000000E+00  0.00000000E+00  0.00000000E+00
  0.00000000E+00  0.00000000E+00  0.00000000E+00
  0.00000000E+00  0.00000000E+00  0.00000000E+00
  0.00000000E+00  0.00000000E+00  0.00000000E+00
  0.00000000E+00  0.00000000E+00  0.00000000E+00
  0.00000000E+00  0.00000000E+00  0.00000000E+00
  0.00000000E+00  0.00000000E+00  0.00000000E+00
  0.00000000E+00  0.00000000E+00  0.00000000E+00
  0.00000000E+00  0.00000000E+00  0.00000000E+00
  0.00000000E+00  0.00000000E+00  0.00000000E+00
  0.00000000E+00  0.00000000E+00  0.00000000E+00
  0.00000000E+00  0.00000000E+00  0.00000000E+00
  0.00000000E+00  0.00000000E+00  0.00000000E+00
  0.00000000E+00  0.00000000E+00  0.00000000E+00
  0.00000000E+00  0.00000000E+00  0.00000000E+00
  0.00000000E+00  0.00000000E+00  0.00000000E+00
  0.00000000E+00  0.00000000E+00  0.00000000E+00
  0.00000000E+00  0.00000000E+00  0.00000000E+00
  0.00000000E+00  0.00000000E+00  0.00000000E+00
  0.00000000E+00  0.00000000E+00  0.00000000E+00
  0.00000000E+00  0.00000000E+00  0.00000000E+00
  0.00000000E+00  0.00000000E+00  0.00000000E+00
  0.00000000E+00  0.00000000E+00  0.00000000E+00
  0.00000000E+00  0.00000000E+00  0.00000000E+00
  0.00000000E+00  0.00000000E+00  0.00000000E+00
  0.00000000E+00  0.00000000E+00  0.00000000E+00
  0.00000000E+00  0.00000000E+00  0.00000000E+00
  0.00000000E+00  0.00000000E+00  0.00000000E+00
  0.00000000E+00  0.00000000E+00  0.00000000E+00
  0.00000000E+00  0.00000000E+00  0.00000000E+00
  0.00000000E+00  0.00000000E+00  0.00000000E+00
  0.00000000E+00  0.00000000E+00  0.00000000E+00
  0.00000000E+00  0.00000000E+00  0.00000000E+00
  0.00000000E+00  0.00000000E+00  0.00000000E+00
  0.00000000E+00  0.00000000E+00  0.00000000E+00
  0.00000000E+00  0.00000000E+00  0.00000000E+00
  0.00000000E+00  0.00000000E+00  0.00000000E+00
  0.00000000E+00  0.00000000E+00  0.00000000E+00
  0.00000000E+00  0.00000000E+00  0.00000000E+00
  0.00000000E+00  0.00000000E+00  0.00000000E+00
  0.00000000E+00  0.00000000E+00  0.00000000E+00
  0.00000000E+00  0.00000000E+00  0.00000000E+00
  0.00000000E+00  0.00000000E+00  0.00000000E+00
  0.00000000E+00  0.00000000E+00  0.00000000E+00
  0.00000000E+00  0.00000000E+00  0.00000000E+00
  0.00000000E+00  0.00000000E+00  0.00000000E+00
  0.00000000E+00  0.00000000E+00  0.00000000E+00
  0.00000000E+00  0.00000000E+00  0.00000000E+00
  0.00000000E+00  0.00000000E+00  0.00000000E+00
  0.00000000E+00  0.00000000E+00  0.00000000E+00
  0.00000000E+00  0.00000000E+00  0.00000000E+00
  0.00000000E+00  0.00000000E+00  0.00000000E+00
  0.00000000E+00  0.00000000E+00  0.00000000E+00
  0.00000000E+00  0.00000000E+00  0.00000000E+00
  0.00000000E+00  0.00000000E+00  0.00000000E+00
  0.00000000E+00  0.00000000E+00  0.00000000E+00
  0.00000000E+00  0.00000000E+00  0.00000000E+00
  0.00000000E+00  0.00000000E+00  0.00000000E+00