O  Si Ru C  H                           
   1.00000000000000     
    20.3096463179830877    0.0000000000000000    0.0000000000000000
     0.0000000000000000   19.8625212307842212    0.0000000000000000
     0.0000000000000000    0.0000000000000000   13.3711533343531652
   O    Si   Ru   C    H 
   192    96     2     2     5
Selective dynamics
Direct
  0.5029151419623901  0.0735660596726220  0.7069316305773725   F   F   F
  0.9975465120921569  0.5722056013321435  0.2087406600889281   F   F   F
  0.5029625376940245  0.4265088223227380  0.7071140439527213   F   F   F
  0.9977532233535626  0.9275244284178257  0.2087729064402666   F   F   F
  0.4981453313893027  0.9279672124343890  0.2900201356555101   F   F   F
  0.0032184386695491  0.4269330484855089  0.7921409749159594   F   F   F
  0.4977203592960961  0.5720242044357065  0.2903984015411680   F   F   F
  0.0031941412613889  0.0729668753257329  0.7917158063303020   F   F   F
  0.3878579723645430  0.0669556667519231  0.7965548156122182   F   F   F
  0.1133759987999525  0.5681642766849038  0.2964373645987877   F   F   F
  0.3878584358486918  0.4330437684886519  0.7965742164748164   F   F   F
  0.1131619018860590  0.9319432460406603  0.2963085168143493   F   F   F
  0.6129212749124946  0.9319080494154974  0.2024852466825422   F   F   F
  0.8876973671888919  0.4327342034956771  0.7036508835393036   F   F   F
  0.6135821534334056  0.5682784344751042  0.2033449439821382   F   F   F
  0.8876117469000917  0.0673661435016157  0.7035018781795443   F   F   F
  0.4009161058478412  0.1389419031021148  0.6318180153029829   F   F   F
  0.0975492152827897  0.6394521719483066  0.1313031277521617   F   F   F
  0.4010424696537882  0.3610528181545121  0.6318133081225312   F   F   F
  0.0979273017363127  0.8605720432403103  0.1315500877731708   F   F   F
  0.5980364229202024  0.8599867035161921  0.3696118496126957   F   F   F
  0.9019278058779037  0.3610410398314983  0.8685731531220142   F   F   F
  0.5978237019897392  0.6404601869883422  0.3702439288643333   F   F   F
  0.9020589687179950  0.1389418631131747  0.8685141393728202   F   F   F
  0.4059805669348791  0.0047442563955897  0.6216751015979938   F   F   F
  0.0951764573732916  0.5048736608876467  0.1227496371721131   F   F   F
  0.4060063268505516  0.4952757309538711  0.6217644002593659   F   F   F
  0.0950145795779207  0.9948791405130635  0.1227164896455690   F   F   F
  0.5953696539612068  0.9961081031286270  0.3759909424400547   F   F   F
  0.9063174878259801  0.4953848205285425  0.8779651251188270   F   F   F
  0.5950752590078494  0.5043549968709016  0.3761727772273389   F   F   F
  0.9063218528932850  0.0045785558899212  0.8776992153014049   F   F   F
  0.3240114434950669  0.0382407076679172  0.9638230470655600   F   F   F
  0.1763485455368254  0.5378781522500660  0.4641542393044347   F   F   F
  0.3240639192643968  0.4618354887910741  0.9638665486159397   F   F   F
  0.1760598142935095  0.9621129191317195  0.4643194885432465   F   F   F
  0.6772729551051242  0.9615864103084562  0.0358925853943717   F   F   F
  0.8239264782183469  0.4615726959520288  0.5363529546552854   F   F   F
  0.6766273407468262  0.5380862158563389  0.0360413412402991   F   F   F
  0.8238113343158346  0.0383815205381524  0.5362542402135873   F   F   F
  0.3213968027428109  0.9531424449204593  0.8076808502012938   F   F   F
  0.1776758631529702  0.4534601678782408  0.3068976961336460   F   F   F
  0.3217291042216033  0.5466230856040681  0.8071625387420625   F   F   F
  0.1777392319065001  0.0465284403162727  0.3069405612850815   F   F   F
  0.6782953929680886  0.0464276494116262  0.1929820249193881   F   F   F
  0.8214903320832505  0.5463853187552132  0.6930224919608605   F   F   F
  0.6783411531563246  0.4536225664016982  0.1930928964972622   F   F   F
  0.8216399625265538  0.9533187657130142  0.6928863343997165   F   F   F
  0.2563457342386215  0.0684226129951071  0.8017762481607349   F   F   F
  0.2448952522016867  0.5671912581414134  0.3029801725596926   F   F   F
  0.2563604704749665  0.4316428390570621  0.8018556833268136   F   F   F
  0.2449426920490509  0.9326708891143483  0.3032672996240606   F   F   F
  0.7448138197026068  0.9316484584804456  0.1984038827622641   F   F   F
  0.7562410131176875  0.4314383528184749  0.6983979119208144   F   F   F
  0.7450790913829763  0.5677876932779427  0.1974180494790900   F   F   F
  0.7561874466482195  0.0686029683221889  0.6982838657223311   F   F   F
  0.2923457530791964  0.1261305060343005  0.1042687178754136   F   F   F
  0.2080548172987804  0.6259402392058959  0.6045994473188827   F   F   F
  0.2924222850649301  0.3739550916486252  0.1043750301760937   F   F   F
  0.2083678230371078  0.8737988701838972  0.6051143373682493   F   F   F
  0.7093686419678207  0.8739362591260900  0.8952909269155711   F   F   F
  0.7920626114484861  0.3741440791997874  0.3955590558159940   F   F   F
  0.7090596232993676  0.6260884170026912  0.8958428478711866   F   F   F
  0.7918328172678528  0.1258395964698522  0.3955348022627305   F   F   F
  0.2009180106485928  0.0428348962614322  0.0293984412057924   F   F   F
  0.2996968197579477  0.5426935160259490  0.5294112209858000   F   F   F
  0.2010372834083469  0.4573071122565651  0.0296181964629270   F   F   F
  0.3001390023436201  0.9571623777500093  0.5292848847289235   F   F   F
  0.8001244125693745  0.9575081678051021  0.9697678617340486   F   F   F
  0.7007908648720971  0.4573025797676209  0.4705712418615562   F   F   F
  0.7997060817570443  0.5420944581861136  0.9703302267615257   F   F   F
  0.7006462591275380  0.0424959606184885  0.4703037048025678   F   F   F
  0.2957053417099900  0.9969540863570430  0.1459878746620760   F   F   F
  0.2042062705839172  0.4967531181442908  0.6471179485467573   F   F   F
  0.2967512456497943  0.5034965594674716  0.1468170404423290   F   F   F
  0.2042827147657746  0.0033044922153636  0.6469642495983621   F   F   F
  0.7035695737600207  0.0031082455789999  0.8524917251822970   F   F   F
  0.7966009577419371  0.5038039927924629  0.3537093559489008   F   F   F
  0.7037483821235924  0.4970039567455018  0.8526551329040757   F   F   F
  0.7968926200756812  0.9960101749185029  0.3539470646707343   F   F   F
  0.1093131791865716  0.1272507473097590  0.0964945470806668   F   F   F
  0.3903446186669868  0.6257457785644647  0.6019146134021582   F   F   F
  0.1096159065423521  0.3727429065902896  0.0968433397711834   F   F   F
  0.3904915146767181  0.8732964335899851  0.6023709698991055   F   F   F
  0.8914570966073683  0.8725701197534619  0.9024403536958587   F   F   F
  0.6094185792695015  0.3723840888363128  0.4038542259655458   F   F   F
  0.8907718839668348  0.6272095536584317  0.9025686903724335   F   F   F
  0.6094041022901209  0.1276315479534134  0.4037605891893747   F   F   F
  0.0831048349475765  0.0475109685477975  0.9435687042287597   F   F   F
  0.4176871806418063  0.5499813561623768  0.4438436836473443   F   F   F
  0.0831856777148303  0.4523523729842580  0.9438997465468049   F   F   F
  0.4177057100565236  0.9503932629881149  0.4434710886000843   F   F   F
  0.9177487959233943  0.9513678080394712  0.0560621874536764   F   F   F
  0.5827906879946028  0.4530925389524398  0.5556375829759830   F   F   F
  0.9173413997613409  0.5488456328287370  0.0565855780411937   F   F   F
  0.5826187119468287  0.0467912904197689  0.5553540539617146   F   F   F
  0.1296231040844802  0.0799627804154994  0.7634423203244225   F   F   F
  0.3713805715389924  0.5807279038530382  0.2623249302738841   F   F   F
  0.1296318253701898  0.4200410798835748  0.7636759413020187   F   F   F
  0.3716736635080835  0.9203326267529661  0.2606634994789729   F   F   F
  0.8712029021409506  0.9200613799400728  0.2358970269392415   F   F   F
  0.6292993944101113  0.4207916246772925  0.7356744224965155   F   F   F
  0.8713626048482652  0.5804791718471378  0.2374900436238292   F   F   F
  0.6292492851724560  0.0793042870953116  0.7352598947508895   F   F   F
  0.0748267790478394  0.9603350658947605  0.7917673143456341   F   F   F
  0.4241131313273669  0.4613752091790673  0.2948144036777691   F   F   F
  0.0748028995871124  0.5391836990524368  0.7923195950701611   F   F   F
  0.4241964469789892  0.0386462131336458  0.2945780170194396   F   F   F
  0.9248077689555814  0.0391348004589247  0.2067119060627078   F   F   F
  0.5730250382433582  0.5395395133105296  0.7075292341394857   F   F   F
  0.9246677977408950  0.4608033835361240  0.2067758124953869   F   F   F
  0.5733211229011772  0.9602480457262388  0.7069035787765046   F   F   F
  0.2161824121332003  0.1373904738735874  0.6463271447778780   F   F   F
  0.2829068119861091  0.6366803613948662  0.1476525061854730   F   F   F
  0.2161517510064428  0.3626744318723070  0.6464343906898762   F   F   F
  0.2812571853385109  0.8622816403051772  0.1470097248829845   F   F   F
  0.7854871307777884  0.8613125172036078  0.3535424005027537   F   F   F
  0.7150253360603145  0.3628167424777686  0.8534947758407938   F   F   F
  0.7844173523027322  0.6383153968855808  0.3526240580786180   F   F   F
  0.7148261493384283  0.1372886464544649  0.8532633160024901   F   F   F
  0.4976953731589333  0.8512431515269654  0.7150882463918578   F   F   F
  0.0036584267006603  0.3545747407892605  0.2132407109572441   F   F   F
  0.4963830257525572  0.6485237861533264  0.7163141966104192   F   F   F
  0.0035385368081577  0.1455500153788094  0.2131493366729131   F   F   F
  0.5037287630216625  0.1445781717231256  0.2864470147087275   F   F   F
  0.9964183671514775  0.6460416218950158  0.7856733359177781   F   F   F
  0.5037707510527198  0.3555116669135501  0.2864961434610791   F   F   F
  0.9974740411707330  0.8533813486869732  0.7861803109843066   F   F   F
  0.3809960390642289  0.8349086564065331  0.7919545872161819   F   F   F
  0.1210268688035399  0.3338110613837486  0.2872208120334179   F   F   F
  0.3808622774019028  0.6661850441412724  0.7912588017694091   F   F   F
  0.1209586482013023  0.1660553506375635  0.2869694551628612   F   F   F
  0.6210864063625010  0.1658884040414250  0.2130439895052163   F   F   F
  0.8796725582707978  0.6655219978347873  0.7120511969404149   F   F   F
  0.6211110157533284  0.3341538800550268  0.2131485949028544   F   F   F
  0.8805135498705852  0.8346418498017627  0.7119707920816296   F   F   F
  0.4217809259241392  0.7503507805847178  0.6522652566235507   F   F   F
  0.0746191832608716  0.2500230315661014  0.1491574075772419   F   F   F
  0.5737535633323603  0.2500033269389590  0.3499372146450668   F   F   F
  0.9251226866394830  0.7503448640886887  0.8497953722083338   F   F   F
  0.3155906769480197  0.8660999795792534  0.9558195409109160   F   F   F
  0.1831382099758727  0.3656193254218110  0.4546788161282862   F   F   F
  0.3150452804909492  0.6341542776753997  0.9567948778827571   F   F   F
  0.1830710617180671  0.1345150281137819  0.4545914900688217   F   F   F
  0.6830517762348904  0.1344874634880142  0.0452736917138168   F   F   F
  0.8177706431998928  0.6342849096329175  0.5447558949460145   F   F   F
  0.6830854472072687  0.3655253709567745  0.0454288807432022   F   F   F
  0.8184209001007829  0.8653030850395353  0.5450209094876399   F   F   F
  0.2503750275317600  0.8421110863577823  0.7879548446409643   F   F   F
  0.2513284304882717  0.3439160443049900  0.2888596437238746   F   F   F
  0.2490268498533368  0.6570162645760860  0.7886047722901637   F   F   F
  0.2512496259875334  0.1561531436267387  0.2887659973841181   F   F   F
  0.7514064122389215  0.1563514770940770  0.2107774734307739   F   F   F
  0.7494215416501362  0.6567408640068280  0.7104209754474056   F   F   F
  0.7514333991542230  0.3437018738677295  0.2109204239965408   F   F   F
  0.7506155311414915  0.8427151671112370  0.7101536342016033   F   F   F
  0.2955031487975717  0.7500661174825680  0.0494064429294099   F   F   F
  0.2037513614112356  0.2500402232570522  0.5473130572547689   F   F   F
  0.7036288451255430  0.2500227799147439  0.9524367183681051   F   F   F
  0.7909683035774790  0.7503144538934023  0.4554809661667818   F   F   F
  0.1943564663515289  0.8306143063540361  0.0061009341536007   F   F   F
  0.3039760542072045  0.3321511197779401  0.5063204852821102   F   F   F
  0.1947265230584776  0.6690489975780238  0.0062803763295420   F   F   F
  0.3039535270350342  0.1678850199576374  0.5061614664230731   F   F   F
  0.8037674365760594  0.1675499430433049  0.9919476301601620   F   F   F
  0.6974419035368129  0.6613093374873174  0.4938845616278797   F   F   F
  0.8038193000716305  0.3323998958156906  0.9923103515000236   F   F   F
  0.6949785116382969  0.8388841474530793  0.4937794373240720   F   F   F
  0.0908303256389189  0.7508065427857176  0.0217357634117548   F   F   F
  0.4070684857934594  0.2499810289984339  0.5234879823940233   F   F   F
  0.9068306617426174  0.2499858845960929  0.9771434341541791   F   F   F
  0.5986873485346109  0.7507216304266677  0.4769654584952221   F   F   F
  0.0802634878857873  0.8702120059743379  0.9366010799003632   F   F   F
  0.4196731292247478  0.3690835510139365  0.4362494260570955   F   F   F
  0.0799922430678990  0.6300154294796840  0.9358700415707730   F   F   F
  0.4196318579545562  0.1308483549065897  0.4362280688829117   F   F   F
  0.9187871414795694  0.1307480475178480  0.0643944961597001   F   F   F
  0.5790102592679389  0.6315509141915783  0.5646626583359691   F   F   F
  0.9189813415853791  0.3691962182345989  0.0643979391319860   F   F   F
  0.5798440808321530  0.8683994248076914  0.5636991487113718   F   F   F
  0.1234019009307090  0.8406199597395556  0.7509227683131385   F   F   F
  0.3782191667140111  0.3406282260943811  0.2495822814269246   F   F   F
  0.1229091113402419  0.6597073064651866  0.7494264360042422   F   F   F
  0.3781398319688947  0.1593484212036174  0.2495850342034558   F   F   F
  0.8780772199561611  0.1597428608575626  0.2513021010905376   F   F   F
  0.6229531718645163  0.6591241307648943  0.7511334517436765   F   F   F
  0.8781527669198397  0.3400969411418018  0.2511874583142415   F   F   F
  0.6233521908479602  0.8412403816627148  0.7494830110754052   F   F   F
  0.2007088876381786  0.7499076204314434  0.6665299637902464   F   F   F
  0.2996637301077030  0.2500277610362360  0.1677077677577756   F   F   F
  0.7990848778479602  0.2499825440223233  0.3330224582314472   F   F   F
  0.7011331143592088  0.7498852664420141  0.8326625147029887   F   F   F
  0.4243120677247703  0.0706248793323780  0.6882720414480872   F   F   F
  0.0760515629478533  0.5707141827737630  0.1887833199971851   F   F   F
  0.4243642501694112  0.4293781953153299  0.6883255931551702   F   F   F
  0.0759994471691741  0.9297987879345513  0.1892759555933736   F   F   F
  0.5752836911877992  0.9295098599382356  0.3097890580616252   F   F   F
  0.9246233627582825  0.4294307430317730  0.8116017276557059   F   F   F
  0.5761242863364586  0.5706873103235637  0.3109170475815333   F   F   F
  0.9246201416023538  0.0705567486414296  0.8113905219130189   F   F   F
  0.3223819734165474  0.0318316953936488  0.8430151480515420   F   F   F
  0.1780452314772205  0.5317164602638726  0.3432883448099062   F   F   F
  0.3224146420772769  0.4682209026483264  0.8430421287326908   F   F   F
  0.1785395796493461  0.9677917815150892  0.3442983226456349   F   F   F
  0.6785784620771054  0.9685348388175896  0.1560663801229865   F   F   F
  0.8222945580976031  0.4680597921700667  0.6571628257407198   F   F   F
  0.6784011481407290  0.5319538700143198  0.1569513425766544   F   F   F
  0.8222309627981090  0.0319692201244450  0.6570775164942972   F   F   F
  0.2779123087333701  0.0511264612777964  0.0613109493893447   F   F   F
  0.2226568316635706  0.5510577151876532  0.5612541371714030   F   F   F
  0.2780423512307522  0.4489808195105951  0.0614569707557564   F   F   F
  0.2227038501698928  0.9488757707790185  0.5608893115775970   F   F   F
  0.7229267869690190  0.9494875626881480  0.9383841398050166   F   F   F
  0.7778141510926559  0.4491288428941544  0.4387963766751781   F   F   F
  0.7227333495790305  0.5509907875996660  0.9386600761461779   F   F   F
  0.7777079553616204  0.0507975122443085  0.4386758489674847   F   F   F
  0.1224574189986996  0.0532732866075847  0.0483851064646856   F   F   F
  0.3779769887972222  0.5535711134250292  0.5484128788570217   F   F   F
  0.1226107360804676  0.4467220309073738  0.0486672413644982   F   F   F
  0.3777876662053430  0.9459474911380923  0.5488223991868040   F   F   F
  0.8781535280993751  0.9464457897613912  0.9516455356462288   F   F   F
  0.6224157232441314  0.4466922016762993  0.4511188640456680   F   F   F
  0.8780396312731398  0.5534298767382921  0.9515768464672476   F   F   F
  0.6222660347702487  0.0532503084769687  0.4508426119537319   F   F   F
  0.0728412340832634  0.0397062233897643  0.8238019586723624   F   F   F
  0.4277437962122690  0.5407555480855848  0.3241855554615896   F   F   F
  0.0728651157205249  0.4602342044834629  0.8241694721060924   F   F   F
  0.4269318747976243  0.9585452686487201  0.3244577615003124   F   F   F
  0.9280882633661207  0.9606115665463975  0.1755408492105843   F   F   F
  0.5722872311394767  0.4606056157916711  0.6753226260991951   F   F   F
  0.9275541845522710  0.5399426299954300  0.1762338123948481   F   F   F
  0.5722002755176163  0.0394245703525797  0.6750904917086089   F   F   F
  0.2016626826565684  0.0714697559756701  0.7134550092025691   F   F   F
  0.2988993987442186  0.5712898499085739  0.2141871586954238   F   F   F
  0.2016336523030233  0.4285870286521600  0.7135974393340589   F   F   F
  0.2988443306063218  0.9290269371545179  0.2151439805320479   F   F   F
  0.7989267057872311  0.9271424615050350  0.2870048978013600   F   F   F
  0.7012003299792298  0.4288186369106910  0.7861858612953654   F   F   F
  0.7990674709343182  0.5717379632341064  0.2865965737987679   F   F   F
  0.7010838455696202  0.0712665571672204  0.7859514996808130   F   F   F
  0.4233183314719611  0.8285316150625874  0.6907145569837709   F   F   F
  0.0769156502417161  0.3279886870119242  0.1860147788485307   F   F   F
  0.4225160017646772  0.6712689320234517  0.6873710880998232   F   F   F
  0.0768112818279434  0.1720160537428654  0.1858265876985072   F   F   F
  0.5767129546629590  0.1718671486741741  0.3139569590465925   F   F   F
  0.9229559712785687  0.6721409472207966  0.8137092892119000   F   F   F
  0.5767212789286447  0.3281510196691713  0.3140415784961021   F   F   F
  0.9236376259627406  0.8275161979617494  0.8142716009430586   F   F   F
  0.3176045440156798  0.8743100065265139  0.8352496409457331   F   F   F
  0.1833074541364965  0.3740495101119237  0.3339202901998917   F   F   F
  0.3166322413466247  0.6261422874509321  0.8353782556511220   F   F   F
  0.1832639004326140  0.1259627486727979  0.3338573048679194   F   F   F
  0.6834029271010706  0.1259062829963540  0.1659798546337825   F   F   F
  0.8173914911049067  0.6260697845737013  0.6648316092778757   F   F   F
  0.6834285715484469  0.3741454557802228  0.1661310163765606   F   F   F
  0.8180390671177094  0.8743249110106817  0.6639508229510156   F   F   F
  0.2719336249005408  0.8280048931721140  0.0398110143118302   F   F   F
  0.2271237881017711  0.3276058948125495  0.5390136658916944   F   F   F
  0.2718201366705344  0.6716104933438558  0.0405549456586769   F   F   F
  0.2271202873219309  0.1724799435127480  0.5389173023724467   F   F   F
  0.7267472501634842  0.1723610876501098  0.9604303881170466   F   F   F
  0.7717421594233755  0.6711742571015904  0.4624886056518918   F   F   F
  0.7268216124557796  0.3276504608084423  0.9606404345553159   F   F   F
  0.7735448617165801  0.8283804960498102  0.4601353529062777   F   F   F
  0.1160464352860515  0.8276873343385773  0.0243862708777343   F   F   F
  0.3827581189327915  0.3278378273251619  0.5246491080329818   F   F   F
  0.1158189815220538  0.6723369576814520  0.0243199671638763   F   F   F
  0.3827275409154680  0.1721328363621524  0.5246189896410982   F   F   F
  0.8826748189633378  0.1720728385653771  0.9752648999179740   F   F   F
  0.6173754202858106  0.6722073018932946  0.4769919651842187   F   F   F
  0.8827059240094073  0.3279195982384806  0.9753863353167560   F   F   F
  0.6186233313390446  0.8292070493923376  0.4753656324550803   F   F   F
  0.0701421234807214  0.8808956055447794  0.8156208889319174   F   F   F
  0.4310362713513314  0.3815536136468793  0.3171561254436810   F   F   F
  0.0694107194597180  0.6191506547996255  0.8157555429099403   F   F   F
  0.4310160210270055  0.1184563301937942  0.3171106125946963   F   F   F
  0.9308107186515571  0.1189823214311971  0.1834600447849795   F   F   F
  0.5679619234790465  0.6197982690414250  0.6842667538911869   F   F   F
  0.9308747943928424  0.3809922836910218  0.1834914197417490   F   F   F
  0.5680063224667222  0.8802042031824442  0.6831994844794735   F   F   F
  0.1956925432778860  0.8279889409051506  0.7026668692761078   F   F   F
  0.3055343881691073  0.3279008594260304  0.2027792002935414   F   F   F
  0.1947748238030087  0.6720936376952125  0.7015744451133159   F   F   F
  0.3054784587058776  0.1721382358153463  0.2027155232773481   F   F   F
  0.8051754997750677  0.1721935395061607  0.2975943809345409   F   F   F
  0.6959362961868791  0.6720904438298874  0.7980829821152398   F   F   F
  0.8052597360911449  0.3277658206369907  0.2976066237846595   F   F   F
  0.6959288118331912  0.8279407497594562  0.7978325729783080   F   F   F
  0.3661090180451865  0.7452884998401288  0.2707252792321171   F   F   F
  0.3746204570520533  0.7542860585650075  0.4362313711457304   F   F   F
  0.4657389309953643  0.7385756396756022  0.1949777124063985   T   T   T
  0.4566405034741976  0.7577708926266666  0.3300962603799960   T   T   T
  0.4317209275561069  0.7591086317019986  0.1316229591530202   T   T   T
  0.5141823565892167  0.7661455199715164  0.1817793990343688   T   T   T
  0.4744194237862658  0.6846161745794390  0.1894140991843329   T   T   T
  0.4813335027232526  0.8068575810325882  0.3140307595199161   T   T   T
  0.4890042629933049  0.7195164337663940  0.3595465286384211   T   T   T
 
  0.00000000E+00  0.00000000E+00  0.00000000E+00
  0.00000000E+00  0.00000000E+00  0.00000000E+00
  0.00000000E+00  0.00000000E+00  0.00000000E+00
  0.00000000E+00  0.00000000E+00  0.00000000E+00
  0.00000000E+00  0.00000000E+00  0.00000000E+00
  0.00000000E+00  0.00000000E+00  0.00000000E+00
  0.00000000E+00  0.00000000E+00  0.00000000E+00
  0.00000000E+00  0.00000000E+00  0.00000000E+00
  0.00000000E+00  0.00000000E+00  0.00000000E+00
  0.00000000E+00  0.00000000E+00  0.00000000E+00
  0.00000000E+00  0.00000000E+00  0.00000000E+00
  0.00000000E+00  0.00000000E+00  0.00000000E+00
  0.00000000E+00  0.00000000E+00  0.00000000E+00
  0.00000000E+00  0.00000000E+00  0.00000000E+00
  0.00000000E+00  0.00000000E+00  0.00000000E+00
  0.00000000E+00  0.00000000E+00  0.00000000E+00
  0.00000000E+00  0.00000000E+00  0.00000000E+00
  0.00000000E+00  0.00000000E+00  0.00000000E+00
  0.00000000E+00  0.00000000E+00  0.00000000E+00
  0.00000000E+00  0.00000000E+00  0.00000000E+00
  0.00000000E+00  0.00000000E+00  0.00000000E+00
  0.00000000E+00  0.00000000E+00  0.00000000E+00
  0.00000000E+00  0.00000000E+00  0.00000000E+00
  0.00000000E+00  0.00000000E+00  0.00000000E+00
  0.00000000E+00  0.00000000E+00  0.00000000E+00
  0.00000000E+00  0.00000000E+00  0.00000000E+00
  0.00000000E+00  0.00000000E+00  0.00000000E+00
  0.00000000E+00  0.00000000E+00  0.00000000E+00
  0.00000000E+00  0.00000000E+00  0.00000000E+00
  0.00000000E+00  0.00000000E+00  0.00000000E+00
  0.00000000E+00  0.00000000E+00  0.00000000E+00
  0.00000000E+00  0.00000000E+00  0.00000000E+00
  0.00000000E+00  0.00000000E+00  0.00000000E+00
  0.00000000E+00  0.00000000E+00  0.00000000E+00
  0.00000000E+00  0.00000000E+00  0.00000000E+00
  0.00000000E+00  0.00000000E+00  0.00000000E+00
  0.00000000E+00  0.00000000E+00  0.00000000E+00
  0.00000000E+00  0.00000000E+00  0.00000000E+00
  0.00000000E+00  0.00000000E+00  0.00000000E+00
  0.00000000E+00  0.00000000E+00  0.00000000E+00
  0.00000000E+00  0.00000000E+00  0.00000000E+00
  0.00000000E+00  0.00000000E+00  0.00000000E+00
  0.00000000E+00  0.00000000E+00  0.00000000E+00
  0.00000000E+00  0.00000000E+00  0.00000000E+00
  0.00000000E+00  0.00000000E+00  0.00000000E+00
  0.00000000E+00  0.00000000E+00  0.00000000E+00
  0.00000000E+00  0.00000000E+00  0.00000000E+00
  0.00000000E+00  0.00000000E+00  0.00000000E+00
  0.00000000E+00  0.00000000E+00  0.00000000E+00
  0.00000000E+00  0.00000000E+00  0.00000000E+00
  0.00000000E+00  0.00000000E+00  0.00000000E+00
  0.00000000E+00  0.00000000E+00  0.00000000E+00
  0.00000000E+00  0.00000000E+00  0.00000000E+00
  0.00000000E+00  0.00000000E+00  0.00000000E+00
  0.00000000E+00  0.00000000E+00  0.00000000E+00
  0.00000000E+00  0.00000000E+00  0.00000000E+00
  0.00000000E+00  0.00000000E+00  0.00000000E+00
  0.00000000E+00  0.00000000E+00  0.00000000E+00
  0.00000000E+00  0.00000000E+00  0.00000000E+00
  0.00000000E+00  0.00000000E+00  0.00000000E+00
  0.00000000E+00  0.00000000E+00  0.00000000E+00
  0.00000000E+00  0.00000000E+00  0.00000000E+00
  0.00000000E+00  0.00000000E+00  0.00000000E+00
  0.00000000E+00  0.00000000E+00  0.00000000E+00
  0.00000000E+00  0.00000000E+00  0.00000000E+00
  0.00000000E+00  0.00000000E+00  0.00000000E+00
  0.00000000E+00  0.00000000E+00  0.00000000E+00
  0.00000000E+00  0.00000000E+00  0.00000000E+00
  0.00000000E+00  0.00000000E+00  0.00000000E+00
  0.00000000E+00  0.00000000E+00  0.00000000E+00
  0.00000000E+00  0.00000000E+00  0.00000000E+00
  0.00000000E+00  0.00000000E+00  0.00000000E+00
  0.00000000E+00  0.00000000E+00  0.00000000E+00
  0.00000000E+00  0.00000000E+00  0.00000000E+00
  0.00000000E+00  0.00000000E+00  0.00000000E+00
  0.00000000E+00  0.00000000E+00  0.00000000E+00
  0.00000000E+00  0.00000000E+00  0.00000000E+00
  0.00000000E+00  0.00000000E+00  0.00000000E+00
  0.00000000E+00  0.00000000E+00  0.00000000E+00
  0.00000000E+00  0.00000000E+00  0.00000000E+00
  0.00000000E+00  0.00000000E+00  0.00000000E+00
  0.00000000E+00  0.00000000E+00  0.00000000E+00
  0.00000000E+00  0.00000000E+00  0.00000000E+00
  0.00000000E+00  0.00000000E+00  0.00000000E+00
  0.00000000E+00  0.00000000E+00  0.00000000E+00
  0.00000000E+00  0.00000000E+00  0.00000000E+00
  0.00000000E+00  0.00000000E+00  0.00000000E+00
  0.00000000E+00  0.00000000E+00  0.00000000E+00
  0.00000000E+00  0.00000000E+00  0.00000000E+00
  0.00000000E+00  0.00000000E+00  0.00000000E+00
  0.00000000E+00  0.00000000E+00  0.00000000E+00
  0.00000000E+00  0.00000000E+00  0.00000000E+00
  0.00000000E+00  0.00000000E+00  0.00000000E+00
  0.00000000E+00  0.00000000E+00  0.00000000E+00
  0.00000000E+00  0.00000000E+00  0.00000000E+00
  0.00000000E+00  0.00000000E+00  0.00000000E+00
  0.00000000E+00  0.00000000E+00  0.00000000E+00
  0.00000000E+00  0.00000000E+00  0.00000000E+00
  0.00000000E+00  0.00000000E+00  0.00000000E+00
  0.00000000E+00  0.00000000E+00  0.00000000E+00
  0.00000000E+00  0.00000000E+00  0.00000000E+00
  0.00000000E+00  0.00000000E+00  0.00000000E+00
  0.00000000E+00  0.00000000E+00  0.00000000E+00
  0.00000000E+00  0.00000000E+00  0.00000000E+00
  0.00000000E+00  0.00000000E+00  0.00000000E+00
  0.00000000E+00  0.00000000E+00  0.00000000E+00
  0.00000000E+00  0.00000000E+00  0.00000000E+00
  0.00000000E+00  0.00000000E+00  0.00000000E+00
  0.00000000E+00  0.00000000E+00  0.00000000E+00
  0.00000000E+00  0.00000000E+00  0.00000000E+00
  0.00000000E+00  0.00000000E+00  0.00000000E+00
  0.00000000E+00  0.00000000E+00  0.00000000E+00
  0.00000000E+00  0.00000000E+00  0.00000000E+00
  0.00000000E+00  0.00000000E+00  0.00000000E+00
  0.00000000E+00  0.00000000E+00  0.00000000E+00
  0.00000000E+00  0.00000000E+00  0.00000000E+00
  0.00000000E+00  0.00000000E+00  0.00000000E+00
  0.00000000E+00  0.00000000E+00  0.00000000E+00
  0.00000000E+00  0.00000000E+00  0.00000000E+00
  0.00000000E+00  0.00000000E+00  0.00000000E+00
  0.00000000E+00  0.00000000E+00  0.00000000E+00
  0.00000000E+00  0.00000000E+00  0.00000000E+00
  0.00000000E+00  0.00000000E+00  0.00000000E+00
  0.00000000E+00  0.00000000E+00  0.00000000E+00
  0.00000000E+00  0.00000000E+00  0.00000000E+00
  0.00000000E+00  0.00000000E+00  0.00000000E+00
  0.00000000E+00  0.00000000E+00  0.00000000E+00
  0.00000000E+00  0.00000000E+00  0.00000000E+00
  0.00000000E+00  0.00000000E+00  0.00000000E+00
  0.00000000E+00  0.00000000E+00  0.00000000E+00
  0.00000000E+00  0.00000000E+00  0.00000000E+00
  0.00000000E+00  0.00000000E+00  0.00000000E+00
  0.00000000E+00  0.00000000E+00  0.00000000E+00
  0.00000000E+00  0.00000000E+00  0.00000000E+00
  0.00000000E+00  0.00000000E+00  0.00000000E+00
  0.00000000E+00  0.00000000E+00  0.00000000E+00
  0.00000000E+00  0.00000000E+00  0.00000000E+00
  0.00000000E+00  0.00000000E+00  0.00000000E+00
  0.00000000E+00  0.00000000E+00  0.00000000E+00
  0.00000000E+00  0.00000000E+00  0.00000000E+00
  0.00000000E+00  0.00000000E+00  0.00000000E+00
  0.00000000E+00  0.00000000E+00  0.00000000E+00
  0.00000000E+00  0.00000000E+00  0.00000000E+00
  0.00000000E+00  0.00000000E+00  0.00000000E+00
  0.00000000E+00  0.00000000E+00  0.00000000E+00
  0.00000000E+00  0.00000000E+00  0.00000000E+00
  0.00000000E+00  0.00000000E+00  0.00000000E+00
  0.00000000E+00  0.00000000E+00  0.00000000E+00
  0.00000000E+00  0.00000000E+00  0.00000000E+00
  0.00000000E+00  0.00000000E+00  0.00000000E+00
  0.00000000E+00  0.00000000E+00  0.00000000E+00
  0.00000000E+00  0.00000000E+00  0.00000000E+00
  0.00000000E+00  0.00000000E+00  0.00000000E+00
  0.00000000E+00  0.00000000E+00  0.00000000E+00
  0.00000000E+00  0.00000000E+00  0.00000000E+00
  0.00000000E+00  0.00000000E+00  0.00000000E+00
  0.00000000E+00  0.00000000E+00  0.00000000E+00
  0.00000000E+00  0.00000000E+00  0.00000000E+00
  0.00000000E+00  0.00000000E+00  0.00000000E+00
  0.00000000E+00  0.00000000E+00  0.00000000E+00
  0.00000000E+00  0.00000000E+00  0.00000000E+00
  0.00000000E+00  0.00000000E+00  0.00000000E+00