O  Si Ru C  H                           
   1.00000000000000     
    20.3096463179830877    0.0000000000000000    0.0000000000000000
     0.0000000000000000   19.8625212307842212    0.0000000000000000
     0.0000000000000000    0.0000000000000000   13.3711533343531652
   O    Si   Ru   C    H 
   192    96     2     2     4
Selective dynamics
Direct
  0.5043671739730442  0.0725433920995684  0.7064147075317209   F   F   F
  0.9985345626462632  0.5694751456655425  0.2091941602241576   F   F   F
  0.5042919543600064  0.4275547281311134  0.7063963479227198   F   F   F
  0.9983289502183368  0.9303582388422313  0.2090804763746803   F   F   F
  0.4971345568011714  0.9279301477242754  0.2905999982882648   F   F   F
  0.0043047119925248  0.4277569611926850  0.7907652041080695   F   F   F
  0.4974800688287857  0.5714363288455004  0.2905458969599266   F   F   F
  0.0042068274498277  0.0722253621218840  0.7904857749930798   F   F   F
  0.3902468990388286  0.0644492139685298  0.7978670949513145   F   F   F
  0.1141082262163096  0.5696313493862348  0.2976097369078730   F   F   F
  0.3902169736324126  0.4356548558815021  0.7977909576791475   F   F   F
  0.1139312415249663  0.9305694987707227  0.2977811110060529   F   F   F
  0.6119700033265758  0.9328010817285204  0.2009730071739995   F   F   F
  0.8892316239874560  0.4334868480228380  0.7005722498940656   F   F   F
  0.6122317172342306  0.5673498245718491  0.2014933387934548   F   F   F
  0.8891075427125514  0.0664698934962971  0.7004354432576676   F   F   F
  0.4012339227410422  0.1380716179137664  0.6341543290593350   F   F   F
  0.0967825363888650  0.6400138304418945  0.1324749353253551   F   F   F
  0.4013577943427862  0.3619955012998872  0.6342001168572082   F   F   F
  0.0970415834326559  0.8602045348035290  0.1326418821155357   F   F   F
  0.5975444103263285  0.8603922712496015  0.3654831191475836   F   F   F
  0.9023725168445225  0.3622835431602880  0.8660291851300101   F   F   F
  0.5972827075667340  0.6391043585363079  0.3661709449487773   F   F   F
  0.9023604780390286  0.1378318339468336  0.8658733384687025   F   F   F
  0.4072696421766011  0.0041602372185352  0.6212968443240783   F   F   F
  0.0989339142100860  0.5059059465638782  0.1233482742749032   F   F   F
  0.4072364158420854  0.4960222611465213  0.6211453473979986   F   F   F
  0.0986279602105000  0.9942578014298817  0.1234335371382400   F   F   F
  0.5952835222156168  0.9946722882286778  0.3756114385969838   F   F   F
  0.9065064816159492  0.4966765485194671  0.8738063105073337   F   F   F
  0.5956288796600546  0.5048036526222646  0.3761095940084687   F   F   F
  0.9065209155798613  0.0034406195960699  0.8737463048683978   F   F   F
  0.3248088745759574  0.0386740460810486  0.9646130584908263   F   F   F
  0.1759560592176470  0.5381174420149932  0.4659511067291362   F   F   F
  0.3249608496024976  0.4614055905852155  0.9646052261050215   F   F   F
  0.1758302901626294  0.9617461120964066  0.4661218521472819   F   F   F
  0.6783782170792918  0.9598071373452299  0.0359142859250241   F   F   F
  0.8243544752758609  0.4621867482137816  0.5346991848982157   F   F   F
  0.6783582032455087  0.5402909209485003  0.0358306766046894   F   F   F
  0.8241489095538199  0.0377952698731079  0.5345535695357029   F   F   F
  0.3205884188260981  0.9527672064421537  0.8096940966796282   F   F   F
  0.1759327360309086  0.4538884513473889  0.3083291999532918   F   F   F
  0.3205793783397581  0.5472120447116424  0.8096083680201218   F   F   F
  0.1760238410845005  0.0461344377462112  0.3085253190123609   F   F   F
  0.6816484370864870  0.0449622493567077  0.1918263520651635   F   F   F
  0.8220806850775517  0.5469739869171732  0.6916325028084671   F   F   F
  0.6817405510432621  0.4550163109752745  0.1919232451964774   F   F   F
  0.8219733229320809  0.9530031956311831  0.6916022072826422   F   F   F
  0.2590122502157257  0.0694877991263354  0.8005649318354173   F   F   F
  0.2458095620229273  0.5662749275493510  0.3055557725459721   F   F   F
  0.2590713400357174  0.4305134444573113  0.8007789069264746   F   F   F
  0.2455559851076075  0.9336866291040593  0.3056159708689421   F   F   F
  0.7431104305956495  0.9282090671120642  0.2003355195262557   F   F   F
  0.7577112199476161  0.4316557442146589  0.6980378086741013   F   F   F
  0.7434285105799887  0.5717824362440211  0.2002993595135152   F   F   F
  0.7576370838113817  0.0684012351527841  0.6980087887963080   F   F   F
  0.2925309698114305  0.1269815857080374  0.1042843102336946   F   F   F
  0.2090049168716703  0.6253166603403741  0.6063875890607520   F   F   F
  0.2929459274471995  0.3731796573229005  0.1043887070624621   F   F   F
  0.2091744185769500  0.8747802322729399  0.6066214850730773   F   F   F
  0.7106175089192490  0.8743563238141618  0.8925173508730992   F   F   F
  0.7935238473314215  0.3753309301401728  0.3925535879742839   F   F   F
  0.7108003948026038  0.6256232073450789  0.8928404274735087   F   F   F
  0.7934708439765856  0.1245664481484567  0.3924923631262729   F   F   F
  0.2010506080321548  0.0452642026311239  0.0254438265362609   F   F   F
  0.2995169900026227  0.5417071041550656  0.5313112868970933   F   F   F
  0.2012210515532686  0.4545531689737672  0.0255948924747571   F   F   F
  0.2995198005912556  0.9587512604239947  0.5311808526002295   F   F   F
  0.8016478254872936  0.9564653763933180  0.9709270556287208   F   F   F
  0.7017575030332779  0.4573332636130019  0.4681695282612566   F   F   F
  0.8016208097502471  0.5433047473007520  0.9712908809168823   F   F   F
  0.7012974734027964  0.0427472283019057  0.4679080480638973   F   F   F
  0.2934183224567519  0.9973961509407445  0.1467171119400703   F   F   F
  0.2035335886773737  0.4956973217757650  0.6483971122580456   F   F   F
  0.2935026863090968  0.5026919902042835  0.1467256473535770   F   F   F
  0.2034180143084257  0.0043284214562789  0.6482727615527395   F   F   F
  0.7062138393704842  0.0046468222027300  0.8547348420652980   F   F   F
  0.7974520066695518  0.5057325444411447  0.3528752221606837   F   F   F
  0.7062604427401311  0.4954742512089467  0.8549045884575222   F   F   F
  0.7973219302348440  0.9942724402276895  0.3529386087626278   F   F   F
  0.1093297512936715  0.1269106964171556  0.0987990923968169   F   F   F
  0.3895896716539724  0.6270051317944123  0.6013516017736649   F   F   F
  0.1094438642345139  0.3732457492906391  0.0990475781742717   F   F   F
  0.3888458929553309  0.8733949490518143  0.6025382514265871   F   F   F
  0.8930763500067158  0.8718828665993712  0.9041114040654818   F   F   F
  0.6104327629646633  0.3726657479971891  0.3999718902439255   F   F   F
  0.8927889768042476  0.6281603592733447  0.9044100374865067   F   F   F
  0.6101931851464997  0.1270752004287345  0.4000865397033451   F   F   F
  0.0811647889075289  0.0474953857310041  0.9459678004968239   F   F   F
  0.4166528382115331  0.5506120579006506  0.4432851316607014   F   F   F
  0.0813422565602835  0.4523972302836015  0.9461360665780489   F   F   F
  0.4165458758063281  0.9496522797467719  0.4432557398245223   F   F   F
  0.9209028606792415  0.9538319636347765  0.0536316123374263   F   F   F
  0.5840752643275948  0.4515580522695544  0.5544567296788259   F   F   F
  0.9209502355634669  0.5461243515888725  0.0536973185206335   F   F   F
  0.5840176959572219  0.0484616316644164  0.5537757793368741   F   F   F
  0.1314357745533243  0.0808848552788533  0.7685854121286795   F   F   F
  0.3715682768596622  0.5774282972706857  0.2584744218253263   F   F   F
  0.1313854884089878  0.4191722911744904  0.7686927188943997   F   F   F
  0.3716631892553082  0.9221128007840278  0.2591179741344902   F   F   F
  0.8713681077852584  0.9208137604858067  0.2308410543797308   F   F   F
  0.6307593059825365  0.4220214815658494  0.7353555902938851   F   F   F
  0.8715958522678804  0.5792377839299547  0.2310153503187564   F   F   F
  0.6306168857513939  0.0780368069358914  0.7350457125515035   F   F   F
  0.0774117828383325  0.9611485499922097  0.7931888117394337   F   F   F
  0.4255892893643818  0.4599490219150226  0.2969639161141160   F   F   F
  0.0773957346019500  0.5388649187642969  0.7935448237308123   F   F   F
  0.4260190575308727  0.0396176640365127  0.2968616640785484   F   F   F
  0.9244378775563504  0.0408555357825620  0.2055210961087255   F   F   F
  0.5750263612287654  0.5403916689604031  0.7029394022729036   F   F   F
  0.9244067457564356  0.4591222520946801  0.2055603098364713   F   F   F
  0.5750054803116171  0.9596261410045415  0.7029663532532595   F   F   F
  0.2152004001116907  0.1386110576698840  0.6476478790577929   F   F   F
  0.2812780780751183  0.6362847479100893  0.1486579750386454   F   F   F
  0.2152348855680017  0.3614887240721245  0.6478013181731299   F   F   F
  0.2811699215580603  0.8637947113270528  0.1488185640579047   F   F   F
  0.7914527905234650  0.8594397540812793  0.3512681849887329   F   F   F
  0.7157910169210169  0.3611578371969415  0.8509470955248588   F   F   F
  0.7914249301869916  0.6404101309124570  0.3512780679144285   F   F   F
  0.7156401715453455  0.1389132378503746  0.8509032384141904   F   F   F
  0.4980976894152320  0.8518205358250910  0.7131148187487852   F   F   F
  0.0030359088113840  0.3527749157250000  0.2135510163358347   F   F   F
  0.4976488582070573  0.6479651667882038  0.7137846342638881   F   F   F
  0.0028711731341389  0.1473182935626554  0.2131586226592574   F   F   F
  0.5026051911591409  0.1478519417441575  0.2874325884692084   F   F   F
  0.9976543528914235  0.6444312410508388  0.7848710213059960   F   F   F
  0.5029859032075805  0.3526016707395385  0.2875270118995701   F   F   F
  0.9980463362824423  0.8551440398740766  0.7848440333406401   F   F   F
  0.3822020803697370  0.8349810593721685  0.7934313545282876   F   F   F
  0.1200688547129474  0.3340103698538215  0.2895910464781011   F   F   F
  0.3812557852586309  0.6649755246611591  0.7927305014550399   F   F   F
  0.1198770793494077  0.1658129964331678  0.2894250344902929   F   F   F
  0.6189971755487136  0.1622644349367022  0.2077002307424962   F   F   F
  0.8801470718989464  0.6660948887229949  0.7137124231356111   F   F   F
  0.6191908454241712  0.3378597519009858  0.2076298555078608   F   F   F
  0.8806458761953166  0.8341743641278470  0.7132391576360035   F   F   F
  0.4210987497096355  0.7500131838671535  0.6515883304701262   F   F   F
  0.0764236781325778  0.2500705716456082  0.1497835693489904   F   F   F
  0.5789424114609432  0.2499248512385464  0.3451963948941170   F   F   F
  0.9284833366641081  0.7499957110787747  0.8497085405402061   F   F   F
  0.3163665394593878  0.8642072756441621  0.9577145648615684   F   F   F
  0.1834559313090338  0.3664846231970955  0.4560250875184835   F   F   F
  0.3162209975818939  0.6357522229802797  0.9575516477730588   F   F   F
  0.1833082511192430  0.1336844539109023  0.4560419297775553   F   F   F
  0.6846156197852977  0.1323984165819141  0.0428717746591616   F   F   F
  0.8210609268200884  0.6357096322741285  0.5444392081806342   F   F   F
  0.6847411908108825  0.3676743717728073  0.0428376364638936   F   F   F
  0.8210420524355229  0.8642868036468343  0.5442476561324838   F   F   F
  0.2515506140969137  0.8404870433602554  0.7892109496414648   F   F   F
  0.2503512767996270  0.3450178045547219  0.2888555463848093   F   F   F
  0.2508361880739116  0.6589119675590851  0.7896251700704155   F   F   F
  0.2501058557936275  0.1551754227128015  0.2888247533107489   F   F   F
  0.7494685173221285  0.1579129381199778  0.2104997919633433   F   F   F
  0.7497868807480259  0.6575165958437665  0.7078707428226565   F   F   F
  0.7497161598324524  0.3421578527645721  0.2105998595044056   F   F   F
  0.7503614164941794  0.8420459218701879  0.7080641549731439   F   F   F
  0.2949227952864675  0.7501153291378415  0.0555924723254577   F   F   F
  0.2036341778876078  0.2500730833147529  0.5457078577634533   F   F   F
  0.7038058261457394  0.2500395346579865  0.9548067087687855   F   F   F
  0.7866949634027236  0.7501264983739730  0.4578530644735039   F   F   F
  0.1947653762144910  0.8311642832895316  0.0072388319787819   F   F   F
  0.3042606315941541  0.3325305661308064  0.5086391430905692   F   F   F
  0.1948036101895880  0.6688143816023953  0.0075896998967977   F   F   F
  0.3041900601576515  0.1675325922091275  0.5084570687351615   F   F   F
  0.8047888972501696  0.1678899394682745  0.9900928068796944   F   F   F
  0.6982319587520109  0.6530001297721100  0.4899490613249640   F   F   F
  0.8049272777499112  0.3321091817892139  0.9903000289329142   F   F   F
  0.6978533912439673  0.8468864555976552  0.4896560459001478   F   F   F
  0.0909666894801688  0.7499667158809871  0.0220203485463415   F   F   F
  0.4068476178214269  0.2499323447035309  0.5283094833326700   F   F   F
  0.9079083900777860  0.2499938485846656  0.9714347603442590   F   F   F
  0.6075726754910988  0.7501671028846673  0.4744373334227276   F   F   F
  0.0802008197174189  0.8702724883913646  0.9366894492305491   F   F   F
  0.4200587633481874  0.3680359831229012  0.4384003438325692   F   F   F
  0.0801264464053588  0.6301266284876164  0.9365719449038110   F   F   F
  0.4199536198374645  0.1318095021475258  0.4380609980368462   F   F   F
  0.9202443457478822  0.1317175559455208  0.0617278428923740   F   F   F
  0.5796485829773204  0.6340721807330283  0.5629339468397774   F   F   F
  0.9204334880016063  0.3681414466909345  0.0619919630614874   F   F   F
  0.5799295381669936  0.8664000529053268  0.5621524171554739   F   F   F
  0.1243351383965887  0.8400158302324527  0.7522300235604717   F   F   F
  0.3772021302778867  0.3403014639274602  0.2518486359988472   F   F   F
  0.1236162518433801  0.6599648412217292  0.7515384300636043   F   F   F
  0.3771603562433512  0.1592912872370320  0.2518216572565208   F   F   F
  0.8768405899893779  0.1616728883989751  0.2466928580849270   F   F   F
  0.6234283981389197  0.6596519003572965  0.7499529986924358   F   F   F
  0.8770026392702803  0.3383072122616610  0.2468830544361538   F   F   F
  0.6237267513008575  0.8403504187971222  0.7488575466920793   F   F   F
  0.2009857223412936  0.7499399624329044  0.6655335664222051   F   F   F
  0.2986860490031589  0.2500143876774317  0.1698035906471489   F   F   F
  0.7985183283259829  0.2499429059522527  0.3338898478250272   F   F   F
  0.7020091004507947  0.7499515896869582  0.8320573347761240   F   F   F
  0.4255689795476130  0.0691359637039568  0.6887522532822103   F   F   F
  0.0770024538895413  0.5706972370861649  0.1897000979814649   F   F   F
  0.4256370685645621  0.4306156664980989  0.6888800241034900   F   F   F
  0.0770463506787777  0.9292883935954279  0.1897450370153848   F   F   F
  0.5754391107982073  0.9293768487454486  0.3095430901627481   F   F   F
  0.9255171563000530  0.4304068294391428  0.8088358295421472   F   F   F
  0.5758762048024550  0.5705600500174413  0.3095439433387952   F   F   F
  0.9255440135109225  0.0695660310869997  0.8086685334474168   F   F   F
  0.3234958407316881  0.0313670471937471  0.8438435784671725   F   F   F
  0.1777042473212305  0.5318255676354084  0.3452899357510759   F   F   F
  0.3235696039009923  0.4685361775633936  0.8437963209036639   F   F   F
  0.1777972942041899  0.9679819080019314  0.3451919949975277   F   F   F
  0.6790541156020495  0.9666293230309577  0.1563703448262288   F   F   F
  0.8232475990580284  0.4687282433556135  0.6554483622846803   F   F   F
  0.6792794371826005  0.5333993565121560  0.1564395976812207   F   F   F
  0.8231207271888152  0.0313186128368770  0.6554823129833949   F   F   F
  0.2775063979032595  0.0521140913225153  0.0606154558020933   F   F   F
  0.2224359913356082  0.5502566999863063  0.5632033115403132   F   F   F
  0.2776725609809532  0.4475211755011586  0.0604638212251558   F   F   F
  0.2224556425285513  0.9497221571387584  0.5631283630242976   F   F   F
  0.7247585846035989  0.9487275293840867  0.9380335377076250   F   F   F
  0.7786342216687032  0.4500386083995593  0.4366383761543773   F   F   F
  0.7247779964181333  0.5512773527103150  0.9382298975211043   F   F   F
  0.7786685779091016  0.0499655819579203  0.4364881684906550   F   F   F
  0.1228557589144188  0.0534583810012776  0.0488011207311985   F   F   F
  0.3776819491023886  0.5540925276561666  0.5489730714902308   F   F   F
  0.1229438461953904  0.4464206453878816  0.0489922359279333   F   F   F
  0.3775531976279396  0.9459627005345226  0.5491619541262196   F   F   F
  0.8801150832938944  0.9463675889093324  0.9504163229936182   F   F   F
  0.6234925817346948  0.4462982511019220  0.4494511139195154   F   F   F
  0.8800851087224757  0.5536582138905004  0.9505422938643449   F   F   F
  0.6231855705327760  0.0534500977981267  0.4490786299464133   F   F   F
  0.0736111491806355  0.0398092232553253  0.8255017020546731   F   F   F
  0.4275485766096878  0.5397323383021444  0.3242896086742562   F   F   F
  0.0736363899852250  0.4601434618387543  0.8256782842934953   F   F   F
  0.4276068365342454  0.9601318831360572  0.3248040524127873   F   F   F
  0.9287574000643914  0.9620446673459284  0.1738535984681064   F   F   F
  0.5738461237854509  0.4609489880753657  0.6734108276965500   F   F   F
  0.9287602360835550  0.5378520614564337  0.1739606750852261   F   F   F
  0.5736726334390241  0.0390666200539656  0.6736685043432828   F   F   F
  0.2022969400454713  0.0724214253562394  0.7152602176953025   F   F   F
  0.2980091582746027  0.5698098374758516  0.2147308511765615   F   F   F
  0.2023458772605835  0.4276230147212559  0.7152359042235119   F   F   F
  0.2975243437295347  0.9299829666017558  0.2144391893965647   F   F   F
  0.8006889124277592  0.9268265398605209  0.2848844254548979   F   F   F
  0.7027071326256475  0.4284139005489820  0.7858393195806102   F   F   F
  0.8007117953995788  0.5731634409129072  0.2849862795086366   F   F   F
  0.7026184176234196  0.0716174165056245  0.7857587519482934   F   F   F
  0.4233709535940804  0.8285052100968642  0.6897755199278066   F   F   F
  0.0769805657629163  0.3277112225134999  0.1875111547025270   F   F   F
  0.4231979793892435  0.6717139200403679  0.6895237815409487   F   F   F
  0.0769337168027349  0.1721326144570483  0.1872433607906743   F   F   F
  0.5774570365100047  0.1716400487399952  0.3105759178988237   F   F   F
  0.9249892852127388  0.6719972454228795  0.8138298943981610   F   F   F
  0.5776220972231485  0.3285101401240240  0.3107952268531022   F   F   F
  0.9253496259719896  0.8280902262225069  0.8135702751363993   F   F   F
  0.3176398614199485  0.8731269355645068  0.8369020383585664   F   F   F
  0.1824482031885708  0.3745607594275597  0.3353110948525782   F   F   F
  0.3170857707247237  0.6268075332723697  0.8365295206498331   F   F   F
  0.1822829013815763  0.1253434959221806  0.3352070481756257   F   F   F
  0.6836827778049184  0.1245890042300033  0.1636821421904102   F   F   F
  0.8183197027865390  0.6265441073775619  0.6648950377523661   F   F   F
  0.6837263606888939  0.3755729141337127  0.1637614646093724   F   F   F
  0.8186365929143449  0.8734280873863725  0.6648334466264174   F   F   F
  0.2713609999178601  0.8276348061030490  0.0419891288671934   F   F   F
  0.2270961327446273  0.3275474862984709  0.5398653136887788   F   F   F
  0.2709985983033505  0.6722523699204004  0.0414766523516974   F   F   F
  0.2270046157797836  0.1724164526609258  0.5398681707829880   F   F   F
  0.7276793800497288  0.1723578356407316  0.9591625486564723   F   F   F
  0.7740631113775152  0.6701277411658140  0.4604843542937260   F   F   F
  0.7277702788722706  0.3275783040383899  0.9593307902169101   F   F   F
  0.7740529093681943  0.8298463840882988  0.4603109599664279   F   F   F
  0.1157279469614423  0.8279298936923567  0.0251882985711021   F   F   F
  0.3829584327168689  0.3278651686607219  0.5275014035298966   F   F   F
  0.1155169618953593  0.6725092757956332  0.0250959469228533   F   F   F
  0.3828813404013189  0.1720240847331098  0.5275939698209129   F   F   F
  0.8836995427273209  0.1720100596622345  0.9719878577884984   F   F   F
  0.6207153828916532  0.6697834516945917  0.4728083587450769   F   F   F
  0.8837432445322762  0.3278851233486080  0.9721834389474040   F   F   F
  0.6205037038343022  0.8301906987761143  0.4725561370213214   F   F   F
  0.0705463780191025  0.8814704746637432  0.8171871072946999   F   F   F
  0.4310149238175853  0.3798526045886916  0.3192128247056729   F   F   F
  0.0702072343007814  0.6186226798982020  0.8168298632424609   F   F   F
  0.4309645774765087  0.1195940347988582  0.3189563159508992   F   F   F
  0.9305926914632607  0.1205203366609027  0.1812058870263726   F   F   F
  0.5696611647697978  0.6204996282882007  0.6819894090116136   F   F   F
  0.9306968473685728  0.3793887448430411  0.1814907349550978   F   F   F
  0.5697863863258661  0.8794984070633305  0.6816180104342848   F   F   F
  0.1963671759119734  0.8273880421133342  0.7033895718507992   F   F   F
  0.3049443557952713  0.3279022954426907  0.2039538515893753   F   F   F
  0.1958934625434523  0.6726376252051196  0.7032836063589301   F   F   F
  0.3045527120222999  0.1719421797233451  0.2036590356588945   F   F   F
  0.8046178797801105  0.1726371517813945  0.2959318711701826   F   F   F
  0.6965089645578146  0.6723817193714012  0.7955428052098270   F   F   F
  0.8046949336159201  0.3273283857722618  0.2960750838635704   F   F   F
  0.6966034804674379  0.8275885595170038  0.7953528725942505   F   F   F
  0.3623168307441134  0.7408829174785367  0.2777798870288422   F   F   F
  0.3869002661105228  0.7531960704221561  0.4503946434016441   F   F   F
  0.4669930143996623  0.7454202747596668  0.2361578084036182   T   T   T
  0.4589507157000767  0.7381081084738099  0.3414707073796492   T   T   T
  0.5009740070797690  0.7086296950188995  0.2030475791575412   T   T   T
  0.4584889422076444  0.7873661819628026  0.1896437999326821   T   T   T
  0.4856232805080865  0.6942536984881187  0.3688455777840147   T   T   T
  0.4610114762577525  0.7891548822809753  0.4205203458793064   T   T   T
 
  0.00000000E+00  0.00000000E+00  0.00000000E+00
  0.00000000E+00  0.00000000E+00  0.00000000E+00
  0.00000000E+00  0.00000000E+00  0.00000000E+00
  0.00000000E+00  0.00000000E+00  0.00000000E+00
  0.00000000E+00  0.00000000E+00  0.00000000E+00
  0.00000000E+00  0.00000000E+00  0.00000000E+00
  0.00000000E+00  0.00000000E+00  0.00000000E+00
  0.00000000E+00  0.00000000E+00  0.00000000E+00
  0.00000000E+00  0.00000000E+00  0.00000000E+00
  0.00000000E+00  0.00000000E+00  0.00000000E+00
  0.00000000E+00  0.00000000E+00  0.00000000E+00
  0.00000000E+00  0.00000000E+00  0.00000000E+00
  0.00000000E+00  0.00000000E+00  0.00000000E+00
  0.00000000E+00  0.00000000E+00  0.00000000E+00
  0.00000000E+00  0.00000000E+00  0.00000000E+00
  0.00000000E+00  0.00000000E+00  0.00000000E+00
  0.00000000E+00  0.00000000E+00  0.00000000E+00
  0.00000000E+00  0.00000000E+00  0.00000000E+00
  0.00000000E+00  0.00000000E+00  0.00000000E+00
  0.00000000E+00  0.00000000E+00  0.00000000E+00
  0.00000000E+00  0.00000000E+00  0.00000000E+00
  0.00000000E+00  0.00000000E+00  0.00000000E+00
  0.00000000E+00  0.00000000E+00  0.00000000E+00
  0.00000000E+00  0.00000000E+00  0.00000000E+00
  0.00000000E+00  0.00000000E+00  0.00000000E+00
  0.00000000E+00  0.00000000E+00  0.00000000E+00
  0.00000000E+00  0.00000000E+00  0.00000000E+00
  0.00000000E+00  0.00000000E+00  0.00000000E+00
  0.00000000E+00  0.00000000E+00  0.00000000E+00
  0.00000000E+00  0.00000000E+00  0.00000000E+00
  0.00000000E+00  0.00000000E+00  0.00000000E+00
  0.00000000E+00  0.00000000E+00  0.00000000E+00
  0.00000000E+00  0.00000000E+00  0.00000000E+00
  0.00000000E+00  0.00000000E+00  0.00000000E+00
  0.00000000E+00  0.00000000E+00  0.00000000E+00
  0.00000000E+00  0.00000000E+00  0.00000000E+00
  0.00000000E+00  0.00000000E+00  0.00000000E+00
  0.00000000E+00  0.00000000E+00  0.00000000E+00
  0.00000000E+00  0.00000000E+00  0.00000000E+00
  0.00000000E+00  0.00000000E+00  0.00000000E+00
  0.00000000E+00  0.00000000E+00  0.00000000E+00
  0.00000000E+00  0.00000000E+00  0.00000000E+00
  0.00000000E+00  0.00000000E+00  0.00000000E+00
  0.00000000E+00  0.00000000E+00  0.00000000E+00
  0.00000000E+00  0.00000000E+00  0.00000000E+00
  0.00000000E+00  0.00000000E+00  0.00000000E+00
  0.00000000E+00  0.00000000E+00  0.00000000E+00
  0.00000000E+00  0.00000000E+00  0.00000000E+00
  0.00000000E+00  0.00000000E+00  0.00000000E+00
  0.00000000E+00  0.00000000E+00  0.00000000E+00
  0.00000000E+00  0.00000000E+00  0.00000000E+00
  0.00000000E+00  0.00000000E+00  0.00000000E+00
  0.00000000E+00  0.00000000E+00  0.00000000E+00
  0.00000000E+00  0.00000000E+00  0.00000000E+00
  0.00000000E+00  0.00000000E+00  0.00000000E+00
  0.00000000E+00  0.00000000E+00  0.00000000E+00
  0.00000000E+00  0.00000000E+00  0.00000000E+00
  0.00000000E+00  0.00000000E+00  0.00000000E+00
  0.00000000E+00  0.00000000E+00  0.00000000E+00
  0.00000000E+00  0.00000000E+00  0.00000000E+00
  0.00000000E+00  0.00000000E+00  0.00000000E+00
  0.00000000E+00  0.00000000E+00  0.00000000E+00
  0.00000000E+00  0.00000000E+00  0.00000000E+00
  0.00000000E+00  0.00000000E+00  0.00000000E+00
  0.00000000E+00  0.00000000E+00  0.00000000E+00
  0.00000000E+00  0.00000000E+00  0.00000000E+00
  0.00000000E+00  0.00000000E+00  0.00000000E+00
  0.00000000E+00  0.00000000E+00  0.00000000E+00
  0.00000000E+00  0.00000000E+00  0.00000000E+00
  0.00000000E+00  0.00000000E+00  0.00000000E+00
  0.00000000E+00  0.00000000E+00  0.00000000E+00
  0.00000000E+00  0.00000000E+00  0.00000000E+00
  0.00000000E+00  0.00000000E+00  0.00000000E+00
  0.00000000E+00  0.00000000E+00  0.00000000E+00
  0.00000000E+00  0.00000000E+00  0.00000000E+00
  0.00000000E+00  0.00000000E+00  0.00000000E+00
  0.00000000E+00  0.00000000E+00  0.00000000E+00
  0.00000000E+00  0.00000000E+00  0.00000000E+00
  0.00000000E+00  0.00000000E+00  0.00000000E+00
  0.00000000E+00  0.00000000E+00  0.00000000E+00
  0.00000000E+00  0.00000000E+00  0.00000000E+00
  0.00000000E+00  0.00000000E+00  0.00000000E+00
  0.00000000E+00  0.00000000E+00  0.00000000E+00
  0.00000000E+00  0.00000000E+00  0.00000000E+00
  0.00000000E+00  0.00000000E+00  0.00000000E+00
  0.00000000E+00  0.00000000E+00  0.00000000E+00
  0.00000000E+00  0.00000000E+00  0.00000000E+00
  0.00000000E+00  0.00000000E+00  0.00000000E+00
  0.00000000E+00  0.00000000E+00  0.00000000E+00
  0.00000000E+00  0.00000000E+00  0.00000000E+00
  0.00000000E+00  0.00000000E+00  0.00000000E+00
  0.00000000E+00  0.00000000E+00  0.00000000E+00
  0.00000000E+00  0.00000000E+00  0.00000000E+00
  0.00000000E+00  0.00000000E+00  0.00000000E+00
  0.00000000E+00  0.00000000E+00  0.00000000E+00
  0.00000000E+00  0.00000000E+00  0.00000000E+00
  0.00000000E+00  0.00000000E+00  0.00000000E+00
  0.00000000E+00  0.00000000E+00  0.00000000E+00
  0.00000000E+00  0.00000000E+00  0.00000000E+00
  0.00000000E+00  0.00000000E+00  0.00000000E+00
  0.00000000E+00  0.00000000E+00  0.00000000E+00
  0.00000000E+00  0.00000000E+00  0.00000000E+00
  0.00000000E+00  0.00000000E+00  0.00000000E+00
  0.00000000E+00  0.00000000E+00  0.00000000E+00
  0.00000000E+00  0.00000000E+00  0.00000000E+00
  0.00000000E+00  0.00000000E+00  0.00000000E+00
  0.00000000E+00  0.00000000E+00  0.00000000E+00
  0.00000000E+00  0.00000000E+00  0.00000000E+00
  0.00000000E+00  0.00000000E+00  0.00000000E+00
  0.00000000E+00  0.00000000E+00  0.00000000E+00
  0.00000000E+00  0.00000000E+00  0.00000000E+00
  0.00000000E+00  0.00000000E+00  0.00000000E+00
  0.00000000E+00  0.00000000E+00  0.00000000E+00
  0.00000000E+00  0.00000000E+00  0.00000000E+00
  0.00000000E+00  0.00000000E+00  0.00000000E+00
  0.00000000E+00  0.00000000E+00  0.00000000E+00
  0.00000000E+00  0.00000000E+00  0.00000000E+00
  0.00000000E+00  0.00000000E+00  0.00000000E+00
  0.00000000E+00  0.00000000E+00  0.00000000E+00
  0.00000000E+00  0.00000000E+00  0.00000000E+00
  0.00000000E+00  0.00000000E+00  0.00000000E+00
  0.00000000E+00  0.00000000E+00  0.00000000E+00
  0.00000000E+00  0.00000000E+00  0.00000000E+00
  0.00000000E+00  0.00000000E+00  0.00000000E+00
  0.00000000E+00  0.00000000E+00  0.00000000E+00
  0.00000000E+00  0.00000000E+00  0.00000000E+00
  0.00000000E+00  0.00000000E+00  0.00000000E+00
  0.00000000E+00  0.00000000E+00  0.00000000E+00
  0.00000000E+00  0.00000000E+00  0.00000000E+00
  0.00000000E+00  0.00000000E+00  0.00000000E+00
  0.00000000E+00  0.00000000E+00  0.00000000E+00
  0.00000000E+00  0.00000000E+00  0.00000000E+00
  0.00000000E+00  0.00000000E+00  0.00000000E+00
  0.00000000E+00  0.00000000E+00  0.00000000E+00
  0.00000000E+00  0.00000000E+00  0.00000000E+00
  0.00000000E+00  0.00000000E+00  0.00000000E+00
  0.00000000E+00  0.00000000E+00  0.00000000E+00
  0.00000000E+00  0.00000000E+00  0.00000000E+00
  0.00000000E+00  0.00000000E+00  0.00000000E+00
  0.00000000E+00  0.00000000E+00  0.00000000E+00
  0.00000000E+00  0.00000000E+00  0.00000000E+00
  0.00000000E+00  0.00000000E+00  0.00000000E+00
  0.00000000E+00  0.00000000E+00  0.00000000E+00
  0.00000000E+00  0.00000000E+00  0.00000000E+00
  0.00000000E+00  0.00000000E+00  0.00000000E+00
  0.00000000E+00  0.00000000E+00  0.00000000E+00
  0.00000000E+00  0.00000000E+00  0.00000000E+00
  0.00000000E+00  0.00000000E+00  0.00000000E+00
  0.00000000E+00  0.00000000E+00  0.00000000E+00
  0.00000000E+00  0.00000000E+00  0.00000000E+00
  0.00000000E+00  0.00000000E+00  0.00000000E+00
  0.00000000E+00  0.00000000E+00  0.00000000E+00
  0.00000000E+00  0.00000000E+00  0.00000000E+00
  0.00000000E+00  0.00000000E+00  0.00000000E+00
  0.00000000E+00  0.00000000E+00  0.00000000E+00
  0.00000000E+00  0.00000000E+00  0.00000000E+00
  0.00000000E+00  0.00000000E+00  0.00000000E+00
  0.00000000E+00  0.00000000E+00  0.00000000E+00
  0.00000000E+00  0.00000000E+00  0.00000000E+00
  0.00000000E+00  0.00000000E+00  0.00000000E+00
  0.00000000E+00  0.00000000E+00  0.00000000E+00
  0.00000000E+00  0.00000000E+00  0.00000000E+00
  0.00000000E+00  0.00000000E+00  0.00000000E+00
  0.00000000E+00  0.00000000E+00  0.00000000E+00