 O Si Ru  C  H                          
   1.00000000000000     
    20.3096463179830877    0.0000000000000000    0.0000000000000000
     0.0000000000000000   19.8625212307842212    0.0000000000000000
     0.0000000000000000    0.0000000000000000   13.3711533343531652
   O    Si   Ru   C    H 
   192    96     1     2     6
Selective dynamics
Direct
  0.5025909357277101  0.0727798873228238  0.7075249800237629   F   F   F
  0.9974090642722899  0.5727798873228238  0.2075249800237629   F   F   F
  0.5025909357277101  0.4272201126771762  0.7075249800237629   F   F   F
  0.9971036500127308  0.9271309198137015  0.2077633265682652   T   T   T
  0.4970082935886371  0.9271827675226986  0.2920397292064645   T   T   T
  0.0025909357277101  0.4272201126771762  0.7924750199762371   F   F   F
  0.4974090642722899  0.5727798873228238  0.2924750199762371   F   F   F
  0.0025909357277101  0.0727798873228238  0.7924750199762371   F   F   F
  0.3868825154844515  0.0693889629433002  0.7958398315398867   F   F   F
  0.1131174845155485  0.5693889629433002  0.2958398315398867   F   F   F
  0.3868825154844515  0.4306110370566998  0.7958398315398867   F   F   F
  0.1125043475249927  0.9307942085224528  0.2958113452422989   T   T   T
  0.6125474518291562  0.9308778543798829  0.2034203499901280   T   T   T
  0.8868825154844515  0.4306110370566998  0.7041601684601133   F   F   F
  0.6131174845155485  0.5693889629433002  0.2041601684601133   F   F   F
  0.8868825154844515  0.0693889629433002  0.7041601684601133   F   F   F
  0.4023996572529711  0.1395881488352799  0.6299567877606833   F   F   F
  0.0976287457452553  0.6397677127723359  0.1303286841771309   T   T   T
  0.4023996572529711  0.3604118511647201  0.6299567877606833   F   F   F
  0.0971454379702519  0.8605566468868469  0.1294914989043657   T   T   T
  0.5981007501413790  0.8612823666973507  0.3697129550606462   T   T   T
  0.9023996572529711  0.3604118511647201  0.8700432122393167   F   F   F
  0.5982729616742481  0.6393819254262144  0.3701848418312114   T   T   T
  0.9023996572529711  0.1395881488352799  0.8700432122393167   F   F   F
  0.4045031871746829  0.0051825304987858  0.6227513228883907   F   F   F
  0.0954968128253171  0.5051825304987858  0.1227513228883836   F   F   F
  0.4045031871746829  0.4948174695012142  0.6227513228883907   F   F   F
  0.0951967194064485  0.9949490743202957  0.1226835983290431   T   T   T
  0.5953071410818380  0.9950137676161952  0.3769174226887304   T   T   T
  0.9045031871746829  0.4948174695012142  0.8772486771116093   F   F   F
  0.5954968128253171  0.5051825304987858  0.3772486771116164   F   F   F
  0.9045031871746829  0.0051825304987858  0.8772486771116093   F   F   F
  0.3244131055804047  0.0395323330820503  0.9639933782656485   F   F   F
  0.1755868944195953  0.5395323330820503  0.4639933782656414   F   F   F
  0.3244131055804047  0.4604676669179497  0.9639933782656485   F   F   F
  0.1747809812219376  0.9603621865110364  0.4639866123447768   T   T   T
  0.6756374993317753  0.9608067960390831  0.0357944305341341   T   T   T
  0.8244131055804047  0.4604676669179497  0.5360066217343515   F   F   F
  0.6755868944195953  0.5395323330820503  0.0360066217343515   F   F   F
  0.8244131055804047  0.0395323330820503  0.5360066217343515   F   F   F
  0.3238889110384908  0.9539143837428772  0.8087547980202541   T   T   T
  0.1753558411149996  0.4538071248021893  0.3088267361878323   F   F   F
  0.3246441588850004  0.5461928751978107  0.8088267361878323   F   F   F
  0.1753558411149996  0.0461928751978107  0.3088267361878323   F   F   F
  0.6753558411149996  0.0461928751978107  0.1911732638121677   F   F   F
  0.8246441588850004  0.5461928751978107  0.6911732638121677   F   F   F
  0.6753558411149996  0.4538071248021893  0.1911732638121677   F   F   F
  0.8243607026604246  0.9538374512151977  0.6913610569465387   T   T   T
  0.2554253162963604  0.0666022326352760  0.8022081905298890   F   F   F
  0.2445746837036396  0.5666022326352760  0.3022081905298890   F   F   F
  0.2554253162963604  0.4333977673647240  0.8022081905298890   F   F   F
  0.2437635186732933  0.9330192364199350  0.3016671398631291   T   T   T
  0.7440906508394860  0.9332743507414275  0.1979337235834682   T   T   T
  0.7554253162963604  0.4333977673647240  0.6977918094701110   F   F   F
  0.7445746837036396  0.5666022326352760  0.1977918094701110   F   F   F
  0.7554253162963604  0.0666022326352760  0.6977918094701110   F   F   F
  0.2915288497951138  0.1271841775282851  0.1038202525947156   F   F   F
  0.2083388537707534  0.6270306215813247  0.6038865050213436   T   T   T
  0.2915288497951138  0.3728158224717149  0.1038202525947156   F   F   F
  0.2104821057018751  0.8732498412167995  0.6033002035488603   T   T   T
  0.7095896142727953  0.8728975480476596  0.8972230329359620   T   T   T
  0.7915288497951138  0.3728158224717149  0.3961797474052844   F   F   F
  0.7092752477937672  0.6274835704588145  0.8974340676389184   T   T   T
  0.7915288497951138  0.1271841775282851  0.3961797474052844   F   F   F
  0.2010413266345239  0.0428271635220199  0.0290771958813778   F   F   F
  0.2989586733654761  0.5428271635220199  0.5290771958813778   F   F   F
  0.2010413266345239  0.4571728364779801  0.0290771958813778   F   F   F
  0.2983323435445696  0.9604155377293443  0.5258420236480730   T   T   T
  0.7992865123905133  0.9575796980729581  0.9713321987482736   T   T   T
  0.7010413266345239  0.4571728364779801  0.4709228041186222   F   F   F
  0.7989586733654761  0.5428271635220199  0.9709228041186222   F   F   F
  0.7010413266345239  0.0428271635220199  0.4709228041186222   F   F   F
  0.2968895493308423  0.9978563749150382  0.1470275059927886   F   F   F
  0.2031104506691577  0.4978563749150382  0.6470275059927815   F   F   F
  0.2968895493308423  0.5021436250849618  0.1470275059927886   F   F   F
  0.2031104506691577  0.0021436250849618  0.6470275059927815   F   F   F
  0.7031104506691577  0.0021436250849618  0.8529724940072185   F   F   F
  0.7968895493308423  0.5021436250849618  0.3529724940072114   F   F   F
  0.7031104506691577  0.4978563749150382  0.8529724940072185   F   F   F
  0.7968895493308423  0.9978563749150382  0.3529724940072114   F   F   F
  0.1089942560051327  0.1267462740242564  0.0958674480733634   F   F   F
  0.3893181095586482  0.6261457652384858  0.5974495841750497   T   T   T
  0.1089942560051327  0.3732537259757436  0.0958674480733634   F   F   F
  0.3865289453285495  0.8749585447344729  0.5968808799478236   T   T   T
  0.8913716294441062  0.8733615648481967  0.9033556228603502   T   T   T
  0.6089942560051327  0.3732537259757436  0.4041325519266366   F   F   F
  0.8913083038475017  0.6265435124743336  0.9034615632464101   T   T   T
  0.6089942560051327  0.1267462740242564  0.4041325519266366   F   F   F
  0.0831228757301545  0.0463555586530404  0.9432954022258713   F   F   F
  0.4168771242698455  0.5463555586530404  0.4432954022258713   F   F   F
  0.0831228757301545  0.4536444413469596  0.9432954022258713   F   F   F
  0.4171491038028738  0.9537940137990729  0.4432720703425070   T   T   T
  0.9170525389185643  0.9534200689033536  0.0566472550291507   T   T   T
  0.5831228757301545  0.4536444413469596  0.5567045977741287   F   F   F
  0.9168771242698455  0.5463555586530404  0.0567045977741287   F   F   F
  0.5831228757301545  0.0463555586530404  0.5567045977741287   F   F   F
  0.1289595153762306  0.0794086100630622  0.7630589808606629   F   F   F
  0.3710404846237694  0.5794086100630622  0.2630589808606629   F   F   F
  0.1289595153762306  0.4205913899369378  0.7630589808606629   F   F   F
  0.3703970526336952  0.9209031424223592  0.2635883839372570   T   T   T
  0.8706901100857369  0.9206549960289996  0.2364829739190848   T   T   T
  0.6289595153762306  0.4205913899369378  0.7369410191393371   F   F   F
  0.8710404846237694  0.5794086100630622  0.2369410191393371   F   F   F
  0.6289595153762306  0.0794086100630622  0.7369410191393371   F   F   F
  0.0731040023917298  0.9603396717956950  0.7908863303720949   T   T   T
  0.4264236799621770  0.4603034831418356  0.2908788493740602   F   F   F
  0.0735763200378230  0.5396965168581644  0.7908788493740531   F   F   F
  0.4264236799621770  0.0396965168581644  0.2908788493740602   F   F   F
  0.9264236799621770  0.0396965168581644  0.2091211506259398   F   F   F
  0.5735763200378230  0.5396965168581644  0.7091211506259469   F   F   F
  0.9264236799621770  0.4603034831418356  0.2091211506259398   F   F   F
  0.5751791145405648  0.9608298243152686  0.7104791348418571   T   T   T
  0.2164898181671191  0.1361625178643777  0.6465161981987251   F   F   F
  0.2838430177284805  0.6361362498853581  0.1462017561667928   T   T   T
  0.2164898181671191  0.3638374821356223  0.6465161981987251   F   F   F
  0.2837374054218904  0.8638986216094743  0.1459253674720528   T   T   T
  0.7833146506299217  0.8638305066587830  0.3529547819168876   T   T   T
  0.7164898181671191  0.3638374821356223  0.8534838018012749   F   F   F
  0.7829059739523037  0.6360962577320928  0.3533344198291117   T   T   T
  0.7164898181671191  0.1361625178643777  0.8534838018012749   F   F   F
  0.4959657444952182  0.8569225043655769  0.7159593741075486   T   T   T
  0.0041870730047435  0.3531357233755159  0.2140092002379745   F   F   F
  0.4967082591352332  0.6455264179489127  0.7180782497723850   T   T   T
  0.0041870730047435  0.1468642766244841  0.2140092002379745   F   F   F
  0.5041870730047435  0.1468642766244841  0.2859907997620255   F   F   F
  0.9963518009142055  0.6472230044036087  0.7853754977439664   T   T   T
  0.5041870730047435  0.3531357233755159  0.2859907997620255   F   F   F
  0.9961970650942488  0.8525549141426505  0.7845662981860644   T   T   T
  0.3804113694406515  0.8350965815702919  0.7859228491625085   T   T   T
  0.1223394308142645  0.3330694750354013  0.2858074615356969   F   F   F
  0.3804162366706845  0.6657254556421519  0.7866839718035351   T   T   T
  0.1223394308142645  0.1669305249645987  0.2858074615356969   F   F   F
  0.6223394308142645  0.1669305249645987  0.2141925384643031   F   F   F
  0.8778936805167171  0.6665753437226388  0.7133261208742808   T   T   T
  0.6223394308142645  0.3330694750354013  0.2141925384643031   F   F   F
  0.8771777696195552  0.8332345936651296  0.7137423216866976   T   T   T
  0.4155281428941825  0.7505644486328781  0.6490573785484351   T   T   T
  0.0759212098317121  0.2500000000000000  0.1472425182485750   F   F   F
  0.5759212098317121  0.2500000000000000  0.3527574817514250   F   F   F
  0.9237974278659290  0.7499642888973108  0.8516875926994404   T   T   T
  0.3180975228161005  0.8643049640002514  0.9547534062360504   T   T   T
  0.1824716471111429  0.3646363999312143  0.4553082923555465   F   F   F
  0.3181077785826189  0.6355291401011698  0.9549894250626865   T   T   T
  0.1824716471111429  0.1353636000687857  0.4553082923555465   F   F   F
  0.6824716471111429  0.1353636000687857  0.0446917076444535   F   F   F
  0.8157287349149930  0.6347267839659689  0.5446722102282971   T   T   T
  0.6824716471111429  0.3646363999312143  0.0446917076444535   F   F   F
  0.8157793133224137  0.8653495022736862  0.5446228020453493   T   T   T
  0.2494146008981176  0.8453205441934483  0.7894271655487896   T   T   T
  0.2524421241138057  0.3470288878372898  0.2906042087582890   F   F   F
  0.2497635921156258  0.6546611919586097  0.7890984421145006   T   T   T
  0.2524421241138057  0.1529711121627102  0.2906042087582890   F   F   F
  0.7524421241138057  0.1529711121627102  0.2093957912417110   F   F   F
  0.7474537917154569  0.6530829953841225  0.7100387671535117   T   T   T
  0.7524421241138057  0.3470288878372898  0.2093957912417110   F   F   F
  0.7466770547152972  0.8473154541878192  0.7093444153818674   T   T   T
  0.2943571676051370  0.7499790628450500  0.0495955190364015   T   T   T
  0.2047512101703362  0.2500000000000000  0.5502475789369754   F   F   F
  0.7047512101703362  0.2500000000000000  0.9497524210630175   F   F   F
  0.8002258266597408  0.7500466834707387  0.4486696361101305   T   T   T
  0.1960644068651497  0.8337951469764382  0.0058824884997263   T   T   T
  0.3039666124841744  0.3327166449111161  0.5062562090960796   F   F   F
  0.1961053698461352  0.6661260367261542  0.0057750241810891   T   T   T
  0.3039666124841744  0.1672833550888839  0.5062562090960796   F   F   F
  0.8039666124841744  0.1672833550888839  0.9937437909039204   F   F   F
  0.6962691088265098  0.6743619879485252  0.4904761296464819   T   T   T
  0.8039666124841744  0.3327166449111161  0.9937437909039204   F   F   F
  0.6963460491499934  0.8261905971027144  0.4896105715166077   T   T   T
  0.0939308066453342  0.7499399295612027  0.0202688366909421   T   T   T
  0.4068435254241223  0.2500000000000000  0.5199589040338424   F   F   F
  0.9068435254241223  0.2500000000000000  0.9800410959661576   F   F   F
  0.5891055268199885  0.7504707492377761  0.4774641567466428   T   T   T
  0.0805192019515939  0.8689537633710662  0.9334844453412586   T   T   T
  0.4191681511649463  0.3696157380695979  0.4342049483443873   F   F   F
  0.0802619682158942  0.6303821999128257  0.9349083123677400   T   T   T
  0.4191681511649463  0.1303842619304021  0.4342049483443873   F   F   F
  0.9191681511649392  0.1303842619304021  0.0657950516556127   F   F   F
  0.5859157137024351  0.6294340988721142  0.5683186704736415   T   T   T
  0.9191681511649392  0.3696157380695979  0.0657950516556127   F   F   F
  0.5867582763984129  0.8716289982684079  0.5684151065080774   T   T   T
  0.1226542589830413  0.8411842193268673  0.7467759373151751   T   T   T
  0.3785939221413273  0.3399016741142518  0.2475054947775277   F   F   F
  0.1227237383971713  0.6598315248441957  0.7494652015911415   T   T   T
  0.3785939221413273  0.1600983258857482  0.2475054947775277   F   F   F
  0.8785939221413201  0.1600983258857482  0.2524945052224723   F   F   F
  0.6216866141023137  0.6601908898713441  0.7558030662116354   T   T   T
  0.8785939221413201  0.3399016741142518  0.2524945052224723   F   F   F
  0.6209890220291432  0.8396638431701785  0.7564446067042174   T   T   T
  0.2024306733238920  0.7501533071054570  0.6695508005203374   T   T   T
  0.2968133864148328  0.2500000000000000  0.1713179004415224   F   F   F
  0.7968133864148328  0.2500000000000000  0.3286820995584776   F   F   F
  0.7042756349011757  0.7501972834426157  0.8301169417899364   T   T   T
  0.4240099490616913  0.0712238689892644  0.6879805273312769   F   F   F
  0.0759900509383087  0.5712238689892644  0.1879805273312769   F   F   F
  0.4240099490616913  0.4287761310107356  0.6879805273312769   F   F   F
  0.0756352655650685  0.9288578876433508  0.1878271830584768   T   T   T
  0.5754873831422804  0.9293045247851009  0.3112053695706252   T   T   T
  0.9240099490616913  0.4287761310107356  0.8120194726687231   F   F   F
  0.5759900509383087  0.5712238689892644  0.3120194726687231   F   F   F
  0.9240099490616913  0.0712238689892644  0.8120194726687231   F   F   F
  0.3227198167376812  0.0323507114762833  0.8432574132120010   F   F   F
  0.1772801832623188  0.5323507114762833  0.3432574132120010   F   F   F
  0.3227198167376812  0.4676492885237167  0.8432574132120010   F   F   F
  0.1767724021055454  0.9676375622217290  0.3432369477767482   T   T   T
  0.6770128621007016  0.9677853194210777  0.1564573560334561   T   T   T
  0.8227198167376812  0.4676492885237167  0.6567425867879990   F   F   F
  0.6772801832623188  0.5323507114762833  0.1567425867879990   F   F   F
  0.8227198167376812  0.0323507114762833  0.6567425867879990   F   F   F
  0.2779386767015382  0.0519583657721796  0.0611307184073340   F   F   F
  0.2220613232984618  0.5519583657721796  0.5611307184073340   F   F   F
  0.2779386767015382  0.4480416342278204  0.0611307184073340   F   F   F
  0.2221476610038831  0.9487395080906640  0.5603986824506675   T   T   T
  0.7224679660838497  0.9484216254024117  0.9390504350602247   T   T   T
  0.7779386767015382  0.4480416342278204  0.4388692815926660   F   F   F
  0.7220613232984618  0.5519583657721796  0.9388692815926660   F   F   F
  0.7779386767015382  0.0519583657721796  0.4388692815926660   F   F   F
  0.1225104503909904  0.0527779080613016  0.0479940299588080   F   F   F
  0.3774895496090096  0.5527779080612945  0.5479940299588080   F   F   F
  0.1225104503909904  0.4472220919386984  0.0479940299588080   F   F   F
  0.3763898853030480  0.9486416153521681  0.5467856845600324   T   T   T
  0.8777351069208618  0.9471041137481856  0.9519235150773938   T   T   T
  0.6225104503909904  0.4472220919386984  0.4520059700411920   F   F   F
  0.8774895496090096  0.5527779080612945  0.9520059700411920   F   F   F
  0.6225104503909904  0.0527779080613016  0.4520059700411920   F   F   F
  0.0722297752641694  0.0390952680378902  0.8235403254031510   F   F   F
  0.4277702247358306  0.5390952680378902  0.3235403254031510   F   F   F
  0.0722297752641694  0.4609047319621098  0.8235403254031510   F   F   F
  0.4274420393502415  0.9609013058884648  0.3234816691389676   T   T   T
  0.9276313295208105  0.9608719557125720  0.1763794123610460   T   T   T
  0.5722297752641694  0.4609047319621098  0.6764596745968490   F   F   F
  0.9277702247358306  0.5390952680378902  0.1764596745968490   F   F   F
  0.5722297752641694  0.0390952680378902  0.6764596745968490   F   F   F
  0.2011043077742869  0.0703822647950858  0.7135284737427909   F   F   F
  0.2988956922257131  0.5703822647950858  0.2135284737427909   F   F   F
  0.2011043077742869  0.4296177352049142  0.7135284737427909   F   F   F
  0.2984238743253797  0.9295613428236030  0.2134184177065134   T   T   T
  0.7986680806728016  0.9297588665448351  0.2861411333633136   T   T   T
  0.7011043077742869  0.4296177352049142  0.7864715262572091   F   F   F
  0.7988956922257131  0.5703822647950858  0.2864715262572091   F   F   F
  0.7011043077742869  0.0703822647950858  0.7864715262572091   F   F   F
  0.4234484100588349  0.8306931799040796  0.6825807270151977   T   T   T
  0.0776147133579599  0.3277153649932174  0.1851848138450478   F   F   F
  0.4241029228676761  0.6709116534631173  0.6843036189489171   T   T   T
  0.0776147133579599  0.1722846350067826  0.1851848138450478   F   F   F
  0.5776147133579599  0.1722846350067826  0.3148151861549522   F   F   F
  0.9226843786722907  0.6721181602443931  0.8141026373443756   T   T   T
  0.5776147133579599  0.3277153649932174  0.3148151861549522   F   F   F
  0.9225724302310476  0.8277456310799765  0.8138879779582011   T   T   T
  0.3182261024617861  0.8742503168789868  0.8340838505541986   T   T   T
  0.1830680121786585  0.3744867008663704  0.3347839836351412   F   F   F
  0.3184370953377491  0.6257989234592499  0.8343162066821684   T   T   T
  0.1830680121786585  0.1255132991336296  0.3347839836351412   F   F   F
  0.6830680121786585  0.1255132991336296  0.1652160163648588   F   F   F
  0.8165964659389885  0.6254304881050663  0.6653426330118779   T   T   T
  0.6830680121786585  0.3744867008663704  0.1652160163648588   F   F   F
  0.8162238664370927  0.8746152180419333  0.6653361619650602   T   T   T
  0.2727957880417921  0.8279337861505518  0.0390857934738359   T   T   T
  0.2273307924942145  0.3277299682844301  0.5397963552221228   F   F   F
  0.2728154203172389  0.6719941701509418  0.0392213293258312   T   T   T
  0.2273307924942145  0.1722700317155699  0.5397963552221228   F   F   F
  0.7273307924942145  0.1722700317155699  0.9602036447778772   F   F   F
  0.7736338788800401  0.6735504457952644  0.4591161007794404   T   T   T
  0.7273307924942145  0.3277299682844301  0.9602036447778772   F   F   F
  0.7738021261798259  0.8265716816520470  0.4588048684530345   T   T   T
  0.1171911504355622  0.8280975125190350  0.0225632553380494   T   T   T
  0.3829046392724536  0.3279865241180246  0.5228273843902258   F   F   F
  0.1172916019678859  0.6718621785739661  0.0230593531800967   T   T   T
  0.3829046392724536  0.1720134758819754  0.5228273843902258   F   F   F
  0.8829046392724536  0.1720134758819754  0.9771726156097742   F   F   F
  0.6173235820853592  0.6718013245727906  0.4768276467100223   T   T   T
  0.8829046392724536  0.3279865241180246  0.9771726156097742   F   F   F
  0.6174103089058038  0.8290973742443941  0.4763838715482973   T   T   T
  0.0685932305143146  0.8804174194952138  0.8142672272162513   T   T   T
  0.4316422255872467  0.3805306503245163  0.3150522314059216   F   F   F
  0.0687094297743105  0.6194649932928491  0.8155386286169726   T   T   T
  0.4316422255872467  0.1194693496754837  0.3150522314059216   F   F   F
  0.9316422255872467  0.1194693496754837  0.1849477685940784   F   F   F
  0.5695235179360281  0.6196231711955491  0.6870115301061163   T   T   T
  0.9316422255872467  0.3805306503245163  0.1849477685940784   F   F   F
  0.5697389772783225  0.8811402987275545  0.6869810275078786   T   T   T
  0.1961557535270100  0.8283299390846657  0.7026047682027158   T   T   T
  0.3049811923033445  0.3281471210548332  0.2034825387585641   F   F   F
  0.1957984959511564  0.6721719461012948  0.7033771373643384   T   T   T
  0.3049811923033445  0.1718528789451668  0.2034825387585641   F   F   F
  0.8049811923033445  0.1718528789451668  0.2965174612414359   F   F   F
  0.6955914601286184  0.6721717840683078  0.7980837603819890   T   T   T
  0.8049811923033445  0.3281471210548332  0.2965174612414359   F   F   F
  0.6952927521387667  0.8282160685021260  0.7980250638573226   T   T   T
  0.4874161046117425  0.7510198036454091  0.5322083938143061   T   T   T
  0.4992186921722565  0.7365748130966038  0.1591623186724953   T   T   T
  0.4390744035396398  0.7621073205502356  0.2163629908073819   T   T   T
  0.5171043665787670  0.6887078078135229  0.1899693355430581   T   T   T
  0.4877993631803242  0.7278495139050352  0.0797848183477033   T   T   T
  0.5401130912945491  0.7728364754812542  0.1623389213536715   T   T   T
  0.4207046866479482  0.8095683813138419  0.1848649244363745   T   T   T
  0.3984321772949151  0.7255897835465080  0.2143047448401031   T   T   T
  0.4506028798998827  0.7715312928317740  0.2957031515029368   T   T   T
 
  0.00000000E+00  0.00000000E+00  0.00000000E+00
  0.00000000E+00  0.00000000E+00  0.00000000E+00
  0.00000000E+00  0.00000000E+00  0.00000000E+00
  0.00000000E+00  0.00000000E+00  0.00000000E+00
  0.00000000E+00  0.00000000E+00  0.00000000E+00
  0.00000000E+00  0.00000000E+00  0.00000000E+00
  0.00000000E+00  0.00000000E+00  0.00000000E+00
  0.00000000E+00  0.00000000E+00  0.00000000E+00
  0.00000000E+00  0.00000000E+00  0.00000000E+00
  0.00000000E+00  0.00000000E+00  0.00000000E+00
  0.00000000E+00  0.00000000E+00  0.00000000E+00
  0.00000000E+00  0.00000000E+00  0.00000000E+00
  0.00000000E+00  0.00000000E+00  0.00000000E+00
  0.00000000E+00  0.00000000E+00  0.00000000E+00
  0.00000000E+00  0.00000000E+00  0.00000000E+00
  0.00000000E+00  0.00000000E+00  0.00000000E+00
  0.00000000E+00  0.00000000E+00  0.00000000E+00
  0.00000000E+00  0.00000000E+00  0.00000000E+00
  0.00000000E+00  0.00000000E+00  0.00000000E+00
  0.00000000E+00  0.00000000E+00  0.00000000E+00
  0.00000000E+00  0.00000000E+00  0.00000000E+00
  0.00000000E+00  0.00000000E+00  0.00000000E+00
  0.00000000E+00  0.00000000E+00  0.00000000E+00
  0.00000000E+00  0.00000000E+00  0.00000000E+00
  0.00000000E+00  0.00000000E+00  0.00000000E+00
  0.00000000E+00  0.00000000E+00  0.00000000E+00
  0.00000000E+00  0.00000000E+00  0.00000000E+00
  0.00000000E+00  0.00000000E+00  0.00000000E+00
  0.00000000E+00  0.00000000E+00  0.00000000E+00
  0.00000000E+00  0.00000000E+00  0.00000000E+00
  0.00000000E+00  0.00000000E+00  0.00000000E+00
  0.00000000E+00  0.00000000E+00  0.00000000E+00
  0.00000000E+00  0.00000000E+00  0.00000000E+00
  0.00000000E+00  0.00000000E+00  0.00000000E+00
  0.00000000E+00  0.00000000E+00  0.00000000E+00
  0.00000000E+00  0.00000000E+00  0.00000000E+00
  0.00000000E+00  0.00000000E+00  0.00000000E+00
  0.00000000E+00  0.00000000E+00  0.00000000E+00
  0.00000000E+00  0.00000000E+00  0.00000000E+00
  0.00000000E+00  0.00000000E+00  0.00000000E+00
  0.00000000E+00  0.00000000E+00  0.00000000E+00
  0.00000000E+00  0.00000000E+00  0.00000000E+00
  0.00000000E+00  0.00000000E+00  0.00000000E+00
  0.00000000E+00  0.00000000E+00  0.00000000E+00
  0.00000000E+00  0.00000000E+00  0.00000000E+00
  0.00000000E+00  0.00000000E+00  0.00000000E+00
  0.00000000E+00  0.00000000E+00  0.00000000E+00
  0.00000000E+00  0.00000000E+00  0.00000000E+00
  0.00000000E+00  0.00000000E+00  0.00000000E+00
  0.00000000E+00  0.00000000E+00  0.00000000E+00
  0.00000000E+00  0.00000000E+00  0.00000000E+00
  0.00000000E+00  0.00000000E+00  0.00000000E+00
  0.00000000E+00  0.00000000E+00  0.00000000E+00
  0.00000000E+00  0.00000000E+00  0.00000000E+00
  0.00000000E+00  0.00000000E+00  0.00000000E+00
  0.00000000E+00  0.00000000E+00  0.00000000E+00
  0.00000000E+00  0.00000000E+00  0.00000000E+00
  0.00000000E+00  0.00000000E+00  0.00000000E+00
  0.00000000E+00  0.00000000E+00  0.00000000E+00
  0.00000000E+00  0.00000000E+00  0.00000000E+00
  0.00000000E+00  0.00000000E+00  0.00000000E+00
  0.00000000E+00  0.00000000E+00  0.00000000E+00
  0.00000000E+00  0.00000000E+00  0.00000000E+00
  0.00000000E+00  0.00000000E+00  0.00000000E+00
  0.00000000E+00  0.00000000E+00  0.00000000E+00
  0.00000000E+00  0.00000000E+00  0.00000000E+00
  0.00000000E+00  0.00000000E+00  0.00000000E+00
  0.00000000E+00  0.00000000E+00  0.00000000E+00
  0.00000000E+00  0.00000000E+00  0.00000000E+00
  0.00000000E+00  0.00000000E+00  0.00000000E+00
  0.00000000E+00  0.00000000E+00  0.00000000E+00
  0.00000000E+00  0.00000000E+00  0.00000000E+00
  0.00000000E+00  0.00000000E+00  0.00000000E+00
  0.00000000E+00  0.00000000E+00  0.00000000E+00
  0.00000000E+00  0.00000000E+00  0.00000000E+00
  0.00000000E+00  0.00000000E+00  0.00000000E+00
  0.00000000E+00  0.00000000E+00  0.00000000E+00
  0.00000000E+00  0.00000000E+00  0.00000000E+00
  0.00000000E+00  0.00000000E+00  0.00000000E+00
  0.00000000E+00  0.00000000E+00  0.00000000E+00
  0.00000000E+00  0.00000000E+00  0.00000000E+00
  0.00000000E+00  0.00000000E+00  0.00000000E+00
  0.00000000E+00  0.00000000E+00  0.00000000E+00
  0.00000000E+00  0.00000000E+00  0.00000000E+00
  0.00000000E+00  0.00000000E+00  0.00000000E+00
  0.00000000E+00  0.00000000E+00  0.00000000E+00
  0.00000000E+00  0.00000000E+00  0.00000000E+00
  0.00000000E+00  0.00000000E+00  0.00000000E+00
  0.00000000E+00  0.00000000E+00  0.00000000E+00
  0.00000000E+00  0.00000000E+00  0.00000000E+00
  0.00000000E+00  0.00000000E+00  0.00000000E+00
  0.00000000E+00  0.00000000E+00  0.00000000E+00
  0.00000000E+00  0.00000000E+00  0.00000000E+00
  0.00000000E+00  0.00000000E+00  0.00000000E+00
  0.00000000E+00  0.00000000E+00  0.00000000E+00
  0.00000000E+00  0.00000000E+00  0.00000000E+00
  0.00000000E+00  0.00000000E+00  0.00000000E+00
  0.00000000E+00  0.00000000E+00  0.00000000E+00
  0.00000000E+00  0.00000000E+00  0.00000000E+00
  0.00000000E+00  0.00000000E+00  0.00000000E+00
  0.00000000E+00  0.00000000E+00  0.00000000E+00
  0.00000000E+00  0.00000000E+00  0.00000000E+00
  0.00000000E+00  0.00000000E+00  0.00000000E+00
  0.00000000E+00  0.00000000E+00  0.00000000E+00
  0.00000000E+00  0.00000000E+00  0.00000000E+00
  0.00000000E+00  0.00000000E+00  0.00000000E+00
  0.00000000E+00  0.00000000E+00  0.00000000E+00
  0.00000000E+00  0.00000000E+00  0.00000000E+00
  0.00000000E+00  0.00000000E+00  0.00000000E+00
  0.00000000E+00  0.00000000E+00  0.00000000E+00
  0.00000000E+00  0.00000000E+00  0.00000000E+00
  0.00000000E+00  0.00000000E+00  0.00000000E+00
  0.00000000E+00  0.00000000E+00  0.00000000E+00
  0.00000000E+00  0.00000000E+00  0.00000000E+00
  0.00000000E+00  0.00000000E+00  0.00000000E+00
  0.00000000E+00  0.00000000E+00  0.00000000E+00
  0.00000000E+00  0.00000000E+00  0.00000000E+00
  0.00000000E+00  0.00000000E+00  0.00000000E+00
  0.00000000E+00  0.00000000E+00  0.00000000E+00
  0.00000000E+00  0.00000000E+00  0.00000000E+00
  0.00000000E+00  0.00000000E+00  0.00000000E+00
  0.00000000E+00  0.00000000E+00  0.00000000E+00
  0.00000000E+00  0.00000000E+00  0.00000000E+00
  0.00000000E+00  0.00000000E+00  0.00000000E+00
  0.00000000E+00  0.00000000E+00  0.00000000E+00
  0.00000000E+00  0.00000000E+00  0.00000000E+00
  0.00000000E+00  0.00000000E+00  0.00000000E+00
  0.00000000E+00  0.00000000E+00  0.00000000E+00
  0.00000000E+00  0.00000000E+00  0.00000000E+00
  0.00000000E+00  0.00000000E+00  0.00000000E+00
  0.00000000E+00  0.00000000E+00  0.00000000E+00
  0.00000000E+00  0.00000000E+00  0.00000000E+00
  0.00000000E+00  0.00000000E+00  0.00000000E+00
  0.00000000E+00  0.00000000E+00  0.00000000E+00
  0.00000000E+00  0.00000000E+00  0.00000000E+00
  0.00000000E+00  0.00000000E+00  0.00000000E+00
  0.00000000E+00  0.00000000E+00  0.00000000E+00
  0.00000000E+00  0.00000000E+00  0.00000000E+00
  0.00000000E+00  0.00000000E+00  0.00000000E+00
  0.00000000E+00  0.00000000E+00  0.00000000E+00
  0.00000000E+00  0.00000000E+00  0.00000000E+00
  0.00000000E+00  0.00000000E+00  0.00000000E+00
  0.00000000E+00  0.00000000E+00  0.00000000E+00
  0.00000000E+00  0.00000000E+00  0.00000000E+00
  0.00000000E+00  0.00000000E+00  0.00000000E+00
  0.00000000E+00  0.00000000E+00  0.00000000E+00
  0.00000000E+00  0.00000000E+00  0.00000000E+00
  0.00000000E+00  0.00000000E+00  0.00000000E+00
  0.00000000E+00  0.00000000E+00  0.00000000E+00
  0.00000000E+00  0.00000000E+00  0.00000000E+00
  0.00000000E+00  0.00000000E+00  0.00000000E+00
  0.00000000E+00  0.00000000E+00  0.00000000E+00
  0.00000000E+00  0.00000000E+00  0.00000000E+00
  0.00000000E+00  0.00000000E+00  0.00000000E+00
  0.00000000E+00  0.00000000E+00  0.00000000E+00
  0.00000000E+00  0.00000000E+00  0.00000000E+00
  0.00000000E+00  0.00000000E+00  0.00000000E+00
  0.00000000E+00  0.00000000E+00  0.00000000E+00
  0.00000000E+00  0.00000000E+00  0.00000000E+00
  0.00000000E+00  0.00000000E+00  0.00000000E+00
  0.00000000E+00  0.00000000E+00  0.00000000E+00
  0.00000000E+00  0.00000000E+00  0.00000000E+00