 O Si Ru                                
   1.00000000000000     
    20.3096463179830877    0.0000000000000000    0.0000000000000000
     0.0000000000000000   19.8625212307842212    0.0000000000000000
     0.0000000000000000    0.0000000000000000   13.3711533343531652
   O    Si   Ru
   192    96     4
Selective dynamics
Direct
  0.5030219167759687  0.0548461875679284  0.7109885588016513   T   T   T
  0.9938937966979321  0.5688180105077802  0.2134779456062093   T   T   T
  0.5058956248501193  0.4361552484777668  0.7140707746348852   T   T   T
  0.9969307407971227  0.9367893372251637  0.2107947719995662   T   T   T
  0.4955888390341198  0.9415197349262658  0.2842807544461741   T   T   T
  0.0061283812685055  0.4303203659587500  0.7907562439232427   T   T   T
  0.4954598060912250  0.5660698594604558  0.2916551570154635   T   T   T
  0.0027339203094319  0.0605959185820696  0.7849661673386225   T   T   T
  0.3860705436552127  0.0662908389672356  0.7898483222843470   T   T   T
  0.1077774091807062  0.5611864257728115  0.3065207393660737   T   T   T
  0.3918973571895846  0.4397638812510342  0.8065636103196714   T   T   T
  0.1148344679411946  0.9331758786938656  0.2915424698431996   T   T   T
  0.6130599293591351  0.9351121934709019  0.2055679987082599   T   T   T
  0.8919509899701056  0.4400130574133219  0.6987715011187456   T   T   T
  0.6085332923269854  0.5583764178574950  0.1972219315709205   T   T   T
  0.8853584736240213  0.0660009794866822  0.7049171348436321   T   T   T
  0.4150774022189845  0.1337363939151100  0.6252671151390371   T   T   T
  0.0975584118243420  0.6336595158335836  0.1414803326808350   T   T   T
  0.4044305306972661  0.3699867360294063  0.6381449100672341   T   T   T
  0.0910347452855542  0.8628037665301512  0.1296050868627608   T   T   T
  0.5872263810263152  0.8646135597078002  0.3676889914851748   T   T   T
  0.9012951326334363  0.3677353588413132  0.8635668509875837   T   T   T
  0.6019033167651220  0.6274906510988832  0.3644757581861849   T   T   T
  0.9112861698241044  0.1385584644683734  0.8654262326200723   T   T   T
  0.4009465788612665  0.0003366559156838  0.6165760238177451   T   T   T
  0.0914120808619392  0.4995622485105709  0.1308651115583528   T   T   T
  0.4063484930788396  0.5049088294740197  0.6354759932715449   T   T   T
  0.0962175803394468  0.9969372950120300  0.1175625412801073   T   T   T
  0.5953245637626933  0.9974626516909951  0.3814007399645524   T   T   T
  0.9106315066055984  0.5015670825534035  0.8744907445373231   T   T   T
  0.5925023563222480  0.4944792789522363  0.3715287391515293   T   T   T
  0.9022199965761599  0.0052555491557564  0.8816219983168259   T   T   T
  0.3236763346367252  0.0390849954636444  0.9596190254799818   T   T   T
  0.1781783641421407  0.5367332557953199  0.4693641151853081   T   T   T
  0.3222850025971027  0.4629383710016953  0.9699889858142164   T   T   T
  0.1750970251698964  0.9639370231294478  0.4610549553122965   T   T   T
  0.6755816477808095  0.9644119496889100  0.0375631872380032   T   T   T
  0.8220864981557517  0.4623019861829058  0.5348732404526639   T   T   T
  0.6788020528671725  0.5351181818680718  0.0339731601972377   T   T   T
  0.8232918366550982  0.0363859314931750  0.5369555647113440   T   T   T
  0.3188102087048627  0.9539422764108155  0.8027181098045486   T   T   T
  0.1828026613875729  0.4530447170232351  0.3111307768702111   T   T   T
  0.3144511881401976  0.5474021149150542  0.8139184317891413   T   T   T
  0.1764617240531678  0.0486817771329223  0.3034075776822838   T   T   T
  0.6817394605176509  0.0470454934209808  0.1975807380997247   T   T   T
  0.8143619494048274  0.5462729297259407  0.6929214013780889   T   T   T
  0.6856148074958703  0.4519167628940106  0.1932071815038715   T   T   T
  0.8172557604827265  0.9535276769460278  0.6964557413526825   T   T   T
  0.2548607853788686  0.0697059105646963  0.7998962969530102   T   T   T
  0.2385035934043714  0.5732330284189386  0.3032048349451147   T   T   T
  0.2616163031536662  0.4264322750731382  0.8029658722338940   T   T   T
  0.2466651327701719  0.9372095412626799  0.3025577777830359   T   T   T
  0.7444369052564388  0.9307159502170375  0.1966825835338913   T   T   T
  0.7611812312371846  0.4255297013006977  0.7005930661585963   T   T   T
  0.7394293504515325  0.5723968614334050  0.1994352941752937   T   T   T
  0.7538743830334430  0.0693368307397654  0.6961347307241756   T   T   T
  0.2935907023098385  0.1295622878583632  0.0976777371066212   T   T   T
  0.2059890991156142  0.6218619885465460  0.6150877856432018   T   T   T
  0.2932368320357316  0.3796491243975307  0.1163762107497979   T   T   T
  0.1975966761780467  0.8746949435673999  0.6026562132232640   T   T   T
  0.7030199906958345  0.8755265755302898  0.8968801213865141   T   T   T
  0.7956778902170654  0.3771446349440055  0.3887123650913397   T   T   T
  0.7055654889811898  0.6216571650586530  0.8900536077898693   T   T   T
  0.7978384868410208  0.1240201280494991  0.3938602504739324   T   T   T
  0.2003194207438883  0.0480133529093189  0.0248260125384025   T   T   T
  0.3013747387333853  0.5470044750435777  0.5349713484941327   T   T   T
  0.1994168682896591  0.4574177743134630  0.0360342649242577   T   T   T
  0.2971762893567145  0.9470916699809474  0.5278030397847691   T   T   T
  0.7983851310139217  0.9529093587660110  0.9728089619277653   T   T   T
  0.6993693347324584  0.4515887201150233  0.4686903531270847   T   T   T
  0.8011718841642799  0.5438844910388173  0.9647965349887305   T   T   T
  0.7012190033848315  0.0479768842980610  0.4694406562851651   T   T   T
  0.2947091350021465  0.0008717877675237  0.1434675908507683   T   T   T
  0.2086500990079075  0.4909310820499359  0.6483418020074745   T   T   T
  0.2937497253626421  0.5108228139304519  0.1491163022236637   T   T   T
  0.2065871190241240  0.0049271126571114  0.6420673287068827   T   T   T
  0.7060343453906546  0.0056847524033861  0.8556015044883634   T   T   T
  0.7917636361775550  0.5083251590023355  0.3556352680996864   T   T   T
  0.7060479882548374  0.4907635822103836  0.8530727305260370   T   T   T
  0.7944050248007803  0.9936956690758103  0.3551952969300771   T   T   T
  0.1092684659389753  0.1304696671311673  0.0990796631821280   T   T   T
  0.3918334302674655  0.6340525792053732  0.6057228321666067   T   T   T
  0.1100096487961800  0.3689727465953478  0.0991274144746007   T   T   T
  0.3907680794339325  0.8670250348163205  0.6020270654039261   T   T   T
  0.8885015920293010  0.8715936971463002  0.8942108245790912   T   T   T
  0.6100512307239655  0.3639304705363093  0.4014410741104331   T   T   T
  0.8906687961864984  0.6323115678928818  0.9003059014744424   T   T   T
  0.6103918537151837  0.1306641015050793  0.3951140152193932   T   T   T
  0.0816241107146962  0.0546683855452953  0.9422816270915014   T   T   T
  0.4224888076717589  0.5470269444903763  0.4536807859793455   T   T   T
  0.0818887957015730  0.4509270726163845  0.9491296043751271   T   T   T
  0.4147184038607363  0.9436814607883894  0.4416935697775634   T   T   T
  0.9173365549630894  0.9437625292965459  0.0541544196464388   T   T   T
  0.5810462649621138  0.4445094042487353  0.5526524453408017   T   T   T
  0.9169692069558634  0.5537452167740758  0.0551219437514504   T   T   T
  0.5835136938986052  0.0581106726361790  0.5550008316085733   T   T   T
  0.1283920876083547  0.0780945939782046  0.7590954286687759   T   T   T
  0.3676242372790866  0.5803567515448168  0.2755747543910436   T   T   T
  0.1334544540808282  0.4191884064218473  0.7722630546641749   T   T   T
  0.3718829505297738  0.9220744929176444  0.2505108617851903   T   T   T
  0.8710284594215647  0.9196968581495157  0.2374826981147155   T   T   T
  0.6327393016155848  0.4162746520556939  0.7307264628348976   T   T   T
  0.8669578796510861  0.5819463238134038  0.2346949969655585   T   T   T
  0.6276238057634851  0.0791576187059913  0.7400974704835555   T   T   T
  0.0847257405979849  0.9569914026238547  0.8051138815302936   T   T   T
  0.4158900576007790  0.4599816032013064  0.3051486684992786   T   T   T
  0.0817452513577703  0.5396088934631099  0.7991239979211441   T   T   T
  0.4108150758446549  0.0425469562277267  0.3100261223800373   T   T   T
  0.9154264304770479  0.0409041832259128  0.1923766671616607   T   T   T
  0.5899043833769115  0.5386618345789316  0.6942162028763939   T   T   T
  0.9158174449620838  0.4612676918570775  0.2001544616488984   T   T   T
  0.5908695363573823  0.9569150825021953  0.6857465940791787   T   T   T
  0.2139646218813052  0.1395277443509579  0.6457339192986852   T   T   T
  0.2867370242844232  0.6442156384903784  0.1547492989132847   T   T   T
  0.2137150846519175  0.3567663849162048  0.6520774866142568   T   T   T
  0.2767761024887223  0.8675038323433308  0.1425690965812981   T   T   T
  0.7830198740398320  0.8598327394153982  0.3506778121665620   T   T   T
  0.7147192569278678  0.3564015061239803  0.8516031366781081   T   T   T
  0.7823615995470835  0.6421374822965722  0.3523063707167197   T   T   T
  0.7160884871365053  0.1398147600816181  0.8513629894559596   T   T   T
  0.4955460213537040  0.8668002798738709  0.7209057364729337   T   T   T
  0.0026254273645129  0.3615096809914398  0.2153508219637396   T   T   T
  0.5005955811414289  0.6346822856820964  0.7195924665982298   T   T   T
  0.0049600637063192  0.1378823570435207  0.2196306668012308   T   T   T
  0.5047109101508609  0.1338380350660654  0.2755399485317930   T   T   T
  0.0003639545215633  0.6439539335084029  0.7891614301696263   T   T   T
  0.5025922885336248  0.3611993123721174  0.2840919578486099   T   T   T
  0.9937877574828282  0.8619398859819353  0.7751185834071818   T   T   T
  0.3790603756985576  0.8351950875450364  0.7941955271443085   T   T   T
  0.1179056170610641  0.3365154859573646  0.2924293763879113   T   T   T
  0.3864245924944734  0.6596472724338381  0.8016233923497492   T   T   T
  0.1223057105959361  0.1691045100118315  0.2894164905504096   T   T   T
  0.6206459342382110  0.1652930569152217  0.2030640906941734   T   T   T
  0.8855860450022356  0.6593749903338411  0.7048546058810743   T   T   T
  0.6177403585612562  0.3364180660162090  0.2067079346123551   T   T   T
  0.8765794747597102  0.8347871473963112  0.7028253355919974   T   T   T
  0.4390130535212882  0.7496417348516173  0.6754579735463833   T   T   T
  0.0665280407444457  0.2504470425016624  0.1588728488921254   T   T   T
  0.5645556189665764  0.2479573817139993  0.3337983969611369   T   T   T
  0.9287534144999023  0.7515005864185041  0.8359024295799471   T   T   T
  0.3093268265087479  0.8688214222283720  0.9524243430217137   T   T   T
  0.1821165850865103  0.3653894682599530  0.4597442814616264   T   T   T
  0.3155780910954022  0.6357768918635988  0.9619233268374578   T   T   T
  0.1877051242282597  0.1344703670007164  0.4526120673937811   T   T   T
  0.6906223393798279  0.1294402425146375  0.0444076422488175   T   T   T
  0.8137267226771887  0.6328994816105264  0.5441421069392035   T   T   T
  0.6845524116078137  0.3659946182933175  0.0436902448533848   T   T   T
  0.8055005711436254  0.8708038267005008  0.5442723589676025   T   T   T
  0.2484888335781754  0.8428655152900728  0.7810949767894526   T   T   T
  0.2482776400908660  0.3384751143455660  0.2940508855943753   T   T   T
  0.2566023378450838  0.6652336719605344  0.7886364561546462   T   T   T
  0.2529393265911333  0.1562871775448322  0.2840879437192882   T   T   T
  0.7510621665232695  0.1596115867181374  0.2145034364513823   T   T   T
  0.7555249387965263  0.6639334997052344  0.7158127942893564   T   T   T
  0.7479634246855973  0.3360898656584389  0.2121736015414356   T   T   T
  0.7462725649585457  0.8417126331382760  0.7148502892317145   T   T   T
  0.2901921155825731  0.7534020531568660  0.0456092250298491   T   T   T
  0.2172356796242433  0.2496284188398133  0.5393517004155406   T   T   T
  0.7093042434657588  0.2481663155049467  0.9622036977024566   T   T   T
  0.7942972189308053  0.7513231975469338  0.4609015584265680   T   T   T
  0.1886646230841931  0.8340017121609543  0.0041972559839970   T   T   T
  0.3062946197896669  0.3465410019493201  0.5118574732369416   T   T   T
  0.1943998652943326  0.6641795537400923  0.0158503934507568   T   T   T
  0.3096694477446642  0.1561121521065536  0.5118617030806100   T   T   T
  0.8101108637040053  0.1637914435004281  0.9860500675916922   T   T   T
  0.6929123795215546  0.6696605016814926  0.4925935632813958   T   T   T
  0.8062448346801699  0.3366665924852512  0.9914791106070915   T   T   T
  0.6886160972192569  0.8290511130366361  0.4814063222169381   T   T   T
  0.0914740786021889  0.7461935283924170  0.0381257671790703   T   T   T
  0.3982725593922614  0.2530474727178698  0.5471787075555208   T   T   T
  0.9072568478086930  0.2532978284297516  0.9619253827680603   T   T   T
  0.5871625908980218  0.7454101346352282  0.4483506031450437   T   T   T
  0.0692502681938871  0.8574979017614084  0.9347070800106012   T   T   T
  0.4262127446029483  0.3634992185609912  0.4426365878724495   T   T   T
  0.0784276229912102  0.6286634814020257  0.9457173625565786   T   T   T
  0.4266627836391416  0.1492970828241061  0.4291522301522794   T   T   T
  0.9275135876326881  0.1402384020402194  0.0619417363240267   T   T   T
  0.5757907769763257  0.6351912905536666  0.5594214046996866   T   T   T
  0.9239731090090925  0.3686363824358601  0.0587617462970171   T   T   T
  0.5741061692938948  0.8526039809804170  0.5659207698398708   T   T   T
  0.1199594528665248  0.8343234245054969  0.7528235766691168   T   T   T
  0.3761262934644662  0.3373585743842855  0.2606990216219117   T   T   T
  0.1276099348141395  0.6617290338246398  0.7657538628547721   T   T   T
  0.3796906615273992  0.1625823938784233  0.2423319042257072   T   T   T
  0.8790909889168056  0.1628039735761576  0.2461253697631477   T   T   T
  0.6266288117543151  0.6621437772733292  0.7405376718925873   T   T   T
  0.8764143967161764  0.3378253727498887  0.2408053456132287   T   T   T
  0.6193281341854457  0.8355345889087477  0.7529520470177734   T   T   T
  0.1986394666547440  0.7488379515916297  0.6622665211566338   T   T   T
  0.2990251524596725  0.2525197466252962  0.1641946201377197   T   T   T
  0.8025983455757597  0.2501129328049048  0.3381666924228403   T   T   T
  0.6993030177095997  0.7493781480862932  0.8405365562802721   T   T   T
  0.4257882959985167  0.0631200877235214  0.6841960696975856   T   T   T
  0.0727949213619084  0.5654729165242806  0.1970917316585262   T   T   T
  0.4269723200364606  0.4376707500233700  0.6970710641749867   T   T   T
  0.0748037188015569  0.9330722695284430  0.1861644970810198   T   T   T
  0.5730248057890832  0.9352012662992680  0.3107820286219984   T   T   T
  0.9273966072424237  0.4352512401277897  0.8077980639826906   T   T   T
  0.5740318080638087  0.5612218583840952  0.3071100186479404   T   T   T
  0.9252287840629572  0.0671305760812266  0.8103093289461537   T   T   T
  0.3209778071766507  0.0321505307863013  0.8387431159122267   T   T   T
  0.1771300706867310  0.5310784467972370  0.3483551807961169   T   T   T
  0.3225656094406590  0.4691970664577639  0.8493128648219537   T   T   T
  0.1780662290639495  0.9707220723503813  0.3405607572520359   T   T   T
  0.6787285798067314  0.9693753001917340  0.1584334140476296   T   T   T
  0.8223729918770212  0.4684696383413418  0.6557599819813220   T   T   T
  0.6780609553677330  0.5294746977815333  0.1547970256142974   T   T   T
  0.8199796084045311  0.0313261844507197  0.6578191282008314   T   T   T
  0.2775116750688024  0.0546209785447367  0.0561246842288852   T   T   T
  0.2239188454315805  0.5492417167415453  0.5671645665258725   T   T   T
  0.2767111911803891  0.4527763687271633  0.0687973184828547   T   T   T
  0.2199696596475300  0.9473242391075655  0.5587305636969105   T   T   T
  0.7212531054286241  0.9495809624016278  0.9401384056273562   T   T   T
  0.7767912836494154  0.4496717482141139  0.4363650357279604   T   T   T
  0.7234755773045711  0.5479733310745900  0.9349906262634388   T   T   T
  0.7786603976803123  0.0505866124916034  0.4383209460967743   T   T   T
  0.1220940393177963  0.0576387320505875  0.0466628560347478   T   T   T
  0.3794458190592834  0.5587758964782181  0.5538538336187619   T   T   T
  0.1213009935213898  0.4443108066953037  0.0539840000324123   T   T   T
  0.3755336409702194  0.9383101482446969  0.5470081993889349   T   T   T
  0.8764204766866072  0.9433070245068960  0.9500103664304301   T   T   T
  0.6213515494100519  0.4387361609842318  0.4483728766297478   T   T   T
  0.8793824198316621  0.5578342818313031  0.9484918813626297   T   T   T
  0.6230223843840855  0.0586621751685623  0.4496779581470446   T   T   T
  0.0744900423354437  0.0371558294415337  0.8240355958459475   T   T   T
  0.4249508362748859  0.5395227626857625  0.3322669180658184   T   T   T
  0.0759050018467065  0.4604811359825434  0.8289214250034235   T   T   T
  0.4234462067800010  0.9623288340159525  0.3249281965762352   T   T   T
  0.9251076834604760  0.9607688561368775  0.1724501356025364   T   T   T
  0.5770856735129543  0.4591424537481489  0.6719829705662982   T   T   T
  0.9234526734777853  0.5409479829047008  0.1747106620580795   T   T   T
  0.5761280339978220  0.0369550544652073  0.6718882752718406   T   T   T
  0.2010403318350469  0.0720122919566948  0.7103395896183107   T   T   T
  0.2970516984028843  0.5769127977461130  0.2207990860909523   T   T   T
  0.2044718955301012  0.4243853501249278  0.7181956721495485   T   T   T
  0.2964693406466828  0.9324079423015693  0.2086014575150244   T   T   T
  0.7983637488043736  0.9268941439739041  0.2860303849380836   T   T   T
  0.7036986004431148  0.4233110755154033  0.7848737779827548   T   T   T
  0.7951863158223442  0.5751116616583360  0.2862380460677564   T   T   T
  0.7008543197813988  0.0726939905855008  0.7868735139048338   T   T   T
  0.4260494191967495  0.8295906873015731  0.6959215701962717   T   T   T
  0.0742321574068955  0.3291227919459470  0.1909263067494542   T   T   T
  0.4301471904198879  0.6704803422392344  0.7018362110511719   T   T   T
  0.0753245184302604  0.1719642738565113  0.1909524077118291   T   T   T
  0.5745682647169977  0.1696553687426778  0.3025227942890455   T   T   T
  0.9264687810316469  0.6719379406026187  0.8081033673370082   T   T   T
  0.5735216497706588  0.3272426650101612  0.3071577223565118   T   T   T
  0.9223545805895980  0.8298808725804722  0.8026654484564552   T   T   T
  0.3137767695366485  0.8748915942388764  0.8316541005492273   T   T   T
  0.1823691470615390  0.3734492718300775  0.3387433502953052   T   T   T
  0.3179099922942339  0.6268846638256441  0.8415919351144996   T   T   T
  0.1851106991292788  0.1275475629615817  0.3319466640946253   T   T   T
  0.6860593882759407  0.1257703970196304  0.1653773742964368   T   T   T
  0.8176342921106814  0.6257445042058322  0.6649877157448721   T   T   T
  0.6837239486331236  0.3725208104472854  0.1646725697123781   T   T   T
  0.8114212397675828  0.8748321845265504  0.6650983202521219   T   T   T
  0.2657590366307407  0.8302911741594504  0.0362450728509141   T   T   T
  0.2302590746223335  0.3295435221428184  0.5410449599514290   T   T   T
  0.2714280269574376  0.6743394332303611  0.0456145924261488   T   T   T
  0.2327093871604032  0.1702119960996531  0.5377307600169738   T   T   T
  0.7322184470329612  0.1704461630360713  0.9604535265457826   T   T   T
  0.7705148943694659  0.6736830008558335  0.4619503025558493   T   T   T
  0.7292674700146679  0.3267689891922406  0.9617142478945327   T   T   T
  0.7672321771014344  0.8278412966383342  0.4589306655285914   T   T   T
  0.1105081401126212  0.8250091326871603  0.0266241170409738   T   T   T
  0.3838128441234235  0.3328167507032355  0.5348645897704640   T   T   T
  0.1157464138635380  0.6684572807085386  0.0354904761605497   T   T   T
  0.3871664783574894  0.1732929918343405  0.5284274486333731   T   T   T
  0.8885910724512128  0.1741791652205995  0.9687626447969242   T   T   T
  0.6149811492272139  0.6687517879619185  0.4663731770389153   T   T   T
  0.8845682660458449  0.3313365692362317  0.9688592303131579   T   T   T
  0.6095477324321461  0.8239599829576196  0.4665813711737330   T   T   T
  0.0673264972767811  0.8777345979762223  0.8168213715664283   T   T   T
  0.4296187918833050  0.3807904396791326  0.3235770832407652   T   T   T
  0.0723324798051184  0.6186873403156785  0.8251975069846571   T   T   T
  0.4298386864331629  0.1219448030402293  0.3147383788259845   T   T   T
  0.9313303583366478  0.1204255304898856  0.1797556592387337   T   T   T
  0.5738631836966368  0.6177195473232028  0.6783622324300413   T   T   T
  0.9294278456908125  0.3821823535097087  0.1786128344654670   T   T   T
  0.5702343494713032  0.8780571708311736  0.6812572431044582   T   T   T
  0.1914873698971780  0.8262134873911344  0.6996272301846155   T   T   T
  0.3043878125403220  0.3283029345053636  0.2088102140072206   T   T   T
  0.1970545609198414  0.6732349954420593  0.7080851997166606   T   T   T
  0.3062584209198900  0.1744276639114451  0.1973710375007205   T   T   T
  0.8075901907811350  0.1731066724234306  0.2981673193236134   T   T   T
  0.6967236563786176  0.6731212839246076  0.7969698192598078   T   T   T
  0.8056990289316835  0.3264431970004681  0.2949562906770197   T   T   T
  0.6921280280512971  0.8264513841877630  0.8014150331501498   T   T   T
  0.3034334431886616  0.7629005831803607  0.3722335854982017   T   T   T
  0.3922803186932893  0.8037015627891293  0.2899335845926227   T   T   T
  0.3719037485870664  0.7077302077350401  0.4773867982156579   T   T   T
  0.4610027929222194  0.7457829703618807  0.3928193344366667   T   T   T
 
  0.00000000E+00  0.00000000E+00  0.00000000E+00
  0.00000000E+00  0.00000000E+00  0.00000000E+00
  0.00000000E+00  0.00000000E+00  0.00000000E+00
  0.00000000E+00  0.00000000E+00  0.00000000E+00
  0.00000000E+00  0.00000000E+00  0.00000000E+00
  0.00000000E+00  0.00000000E+00  0.00000000E+00
  0.00000000E+00  0.00000000E+00  0.00000000E+00
  0.00000000E+00  0.00000000E+00  0.00000000E+00
  0.00000000E+00  0.00000000E+00  0.00000000E+00
  0.00000000E+00  0.00000000E+00  0.00000000E+00
  0.00000000E+00  0.00000000E+00  0.00000000E+00
  0.00000000E+00  0.00000000E+00  0.00000000E+00
  0.00000000E+00  0.00000000E+00  0.00000000E+00
  0.00000000E+00  0.00000000E+00  0.00000000E+00
  0.00000000E+00  0.00000000E+00  0.00000000E+00
  0.00000000E+00  0.00000000E+00  0.00000000E+00
  0.00000000E+00  0.00000000E+00  0.00000000E+00
  0.00000000E+00  0.00000000E+00  0.00000000E+00
  0.00000000E+00  0.00000000E+00  0.00000000E+00
  0.00000000E+00  0.00000000E+00  0.00000000E+00
  0.00000000E+00  0.00000000E+00  0.00000000E+00
  0.00000000E+00  0.00000000E+00  0.00000000E+00
  0.00000000E+00  0.00000000E+00  0.00000000E+00
  0.00000000E+00  0.00000000E+00  0.00000000E+00
  0.00000000E+00  0.00000000E+00  0.00000000E+00
  0.00000000E+00  0.00000000E+00  0.00000000E+00
  0.00000000E+00  0.00000000E+00  0.00000000E+00
  0.00000000E+00  0.00000000E+00  0.00000000E+00
  0.00000000E+00  0.00000000E+00  0.00000000E+00
  0.00000000E+00  0.00000000E+00  0.00000000E+00
  0.00000000E+00  0.00000000E+00  0.00000000E+00
  0.00000000E+00  0.00000000E+00  0.00000000E+00
  0.00000000E+00  0.00000000E+00  0.00000000E+00
  0.00000000E+00  0.00000000E+00  0.00000000E+00
  0.00000000E+00  0.00000000E+00  0.00000000E+00
  0.00000000E+00  0.00000000E+00  0.00000000E+00
  0.00000000E+00  0.00000000E+00  0.00000000E+00
  0.00000000E+00  0.00000000E+00  0.00000000E+00
  0.00000000E+00  0.00000000E+00  0.00000000E+00
  0.00000000E+00  0.00000000E+00  0.00000000E+00
  0.00000000E+00  0.00000000E+00  0.00000000E+00
  0.00000000E+00  0.00000000E+00  0.00000000E+00
  0.00000000E+00  0.00000000E+00  0.00000000E+00
  0.00000000E+00  0.00000000E+00  0.00000000E+00
  0.00000000E+00  0.00000000E+00  0.00000000E+00
  0.00000000E+00  0.00000000E+00  0.00000000E+00
  0.00000000E+00  0.00000000E+00  0.00000000E+00
  0.00000000E+00  0.00000000E+00  0.00000000E+00
  0.00000000E+00  0.00000000E+00  0.00000000E+00
  0.00000000E+00  0.00000000E+00  0.00000000E+00
  0.00000000E+00  0.00000000E+00  0.00000000E+00
  0.00000000E+00  0.00000000E+00  0.00000000E+00
  0.00000000E+00  0.00000000E+00  0.00000000E+00
  0.00000000E+00  0.00000000E+00  0.00000000E+00
  0.00000000E+00  0.00000000E+00  0.00000000E+00
  0.00000000E+00  0.00000000E+00  0.00000000E+00
  0.00000000E+00  0.00000000E+00  0.00000000E+00
  0.00000000E+00  0.00000000E+00  0.00000000E+00
  0.00000000E+00  0.00000000E+00  0.00000000E+00
  0.00000000E+00  0.00000000E+00  0.00000000E+00
  0.00000000E+00  0.00000000E+00  0.00000000E+00
  0.00000000E+00  0.00000000E+00  0.00000000E+00
  0.00000000E+00  0.00000000E+00  0.00000000E+00
  0.00000000E+00  0.00000000E+00  0.00000000E+00
  0.00000000E+00  0.00000000E+00  0.00000000E+00
  0.00000000E+00  0.00000000E+00  0.00000000E+00
  0.00000000E+00  0.00000000E+00  0.00000000E+00
  0.00000000E+00  0.00000000E+00  0.00000000E+00
  0.00000000E+00  0.00000000E+00  0.00000000E+00
  0.00000000E+00  0.00000000E+00  0.00000000E+00
  0.00000000E+00  0.00000000E+00  0.00000000E+00
  0.00000000E+00  0.00000000E+00  0.00000000E+00
  0.00000000E+00  0.00000000E+00  0.00000000E+00
  0.00000000E+00  0.00000000E+00  0.00000000E+00
  0.00000000E+00  0.00000000E+00  0.00000000E+00
  0.00000000E+00  0.00000000E+00  0.00000000E+00
  0.00000000E+00  0.00000000E+00  0.00000000E+00
  0.00000000E+00  0.00000000E+00  0.00000000E+00
  0.00000000E+00  0.00000000E+00  0.00000000E+00
  0.00000000E+00  0.00000000E+00  0.00000000E+00
  0.00000000E+00  0.00000000E+00  0.00000000E+00
  0.00000000E+00  0.00000000E+00  0.00000000E+00
  0.00000000E+00  0.00000000E+00  0.00000000E+00
  0.00000000E+00  0.00000000E+00  0.00000000E+00
  0.00000000E+00  0.00000000E+00  0.00000000E+00
  0.00000000E+00  0.00000000E+00  0.00000000E+00
  0.00000000E+00  0.00000000E+00  0.00000000E+00
  0.00000000E+00  0.00000000E+00  0.00000000E+00
  0.00000000E+00  0.00000000E+00  0.00000000E+00
  0.00000000E+00  0.00000000E+00  0.00000000E+00
  0.00000000E+00  0.00000000E+00  0.00000000E+00
  0.00000000E+00  0.00000000E+00  0.00000000E+00
  0.00000000E+00  0.00000000E+00  0.00000000E+00
  0.00000000E+00  0.00000000E+00  0.00000000E+00
  0.00000000E+00  0.00000000E+00  0.00000000E+00
  0.00000000E+00  0.00000000E+00  0.00000000E+00
  0.00000000E+00  0.00000000E+00  0.00000000E+00
  0.00000000E+00  0.00000000E+00  0.00000000E+00
  0.00000000E+00  0.00000000E+00  0.00000000E+00
  0.00000000E+00  0.00000000E+00  0.00000000E+00
  0.00000000E+00  0.00000000E+00  0.00000000E+00
  0.00000000E+00  0.00000000E+00  0.00000000E+00
  0.00000000E+00  0.00000000E+00  0.00000000E+00
  0.00000000E+00  0.00000000E+00  0.00000000E+00
  0.00000000E+00  0.00000000E+00  0.00000000E+00
  0.00000000E+00  0.00000000E+00  0.00000000E+00
  0.00000000E+00  0.00000000E+00  0.00000000E+00
  0.00000000E+00  0.00000000E+00  0.00000000E+00
  0.00000000E+00  0.00000000E+00  0.00000000E+00
  0.00000000E+00  0.00000000E+00  0.00000000E+00
  0.00000000E+00  0.00000000E+00  0.00000000E+00
  0.00000000E+00  0.00000000E+00  0.00000000E+00
  0.00000000E+00  0.00000000E+00  0.00000000E+00
  0.00000000E+00  0.00000000E+00  0.00000000E+00
  0.00000000E+00  0.00000000E+00  0.00000000E+00
  0.00000000E+00  0.00000000E+00  0.00000000E+00
  0.00000000E+00  0.00000000E+00  0.00000000E+00
  0.00000000E+00  0.00000000E+00  0.00000000E+00
  0.00000000E+00  0.00000000E+00  0.00000000E+00
  0.00000000E+00  0.00000000E+00  0.00000000E+00
  0.00000000E+00  0.00000000E+00  0.00000000E+00
  0.00000000E+00  0.00000000E+00  0.00000000E+00
  0.00000000E+00  0.00000000E+00  0.00000000E+00
  0.00000000E+00  0.00000000E+00  0.00000000E+00
  0.00000000E+00  0.00000000E+00  0.00000000E+00
  0.00000000E+00  0.00000000E+00  0.00000000E+00
  0.00000000E+00  0.00000000E+00  0.00000000E+00
  0.00000000E+00  0.00000000E+00  0.00000000E+00
  0.00000000E+00  0.00000000E+00  0.00000000E+00
  0.00000000E+00  0.00000000E+00  0.00000000E+00
  0.00000000E+00  0.00000000E+00  0.00000000E+00
  0.00000000E+00  0.00000000E+00  0.00000000E+00
  0.00000000E+00  0.00000000E+00  0.00000000E+00
  0.00000000E+00  0.00000000E+00  0.00000000E+00
  0.00000000E+00  0.00000000E+00  0.00000000E+00
  0.00000000E+00  0.00000000E+00  0.00000000E+00
  0.00000000E+00  0.00000000E+00  0.00000000E+00
  0.00000000E+00  0.00000000E+00  0.00000000E+00
  0.00000000E+00  0.00000000E+00  0.00000000E+00
  0.00000000E+00  0.00000000E+00  0.00000000E+00
  0.00000000E+00  0.00000000E+00  0.00000000E+00
  0.00000000E+00  0.00000000E+00  0.00000000E+00
  0.00000000E+00  0.00000000E+00  0.00000000E+00
  0.00000000E+00  0.00000000E+00  0.00000000E+00
  0.00000000E+00  0.00000000E+00  0.00000000E+00
  0.00000000E+00  0.00000000E+00  0.00000000E+00
  0.00000000E+00  0.00000000E+00  0.00000000E+00
  0.00000000E+00  0.00000000E+00  0.00000000E+00
  0.00000000E+00  0.00000000E+00  0.00000000E+00
  0.00000000E+00  0.00000000E+00  0.00000000E+00
  0.00000000E+00  0.00000000E+00  0.00000000E+00
  0.00000000E+00  0.00000000E+00  0.00000000E+00
  0.00000000E+00  0.00000000E+00  0.00000000E+00
  0.00000000E+00  0.00000000E+00  0.00000000E+00
  0.00000000E+00  0.00000000E+00  0.00000000E+00
  0.00000000E+00  0.00000000E+00  0.00000000E+00
  0.00000000E+00  0.00000000E+00  0.00000000E+00
  0.00000000E+00  0.00000000E+00  0.00000000E+00
  0.00000000E+00  0.00000000E+00  0.00000000E+00
  0.00000000E+00  0.00000000E+00  0.00000000E+00
  0.00000000E+00  0.00000000E+00  0.00000000E+00
  0.00000000E+00  0.00000000E+00  0.00000000E+00
  0.00000000E+00  0.00000000E+00  0.00000000E+00
  0.00000000E+00  0.00000000E+00  0.00000000E+00
  0.00000000E+00  0.00000000E+00  0.00000000E+00
  0.00000000E+00  0.00000000E+00  0.00000000E+00
  0.00000000E+00  0.00000000E+00  0.00000000E+00
  0.00000000E+00  0.00000000E+00  0.00000000E+00
  0.00000000E+00  0.00000000E+00  0.00000000E+00
  0.00000000E+00  0.00000000E+00  0.00000000E+00