O  Si Ru C  H                           
   1.00000000000000     
    20.3096463179999986    0.0000000000000000    0.0000000000000000
     0.0000000000000000   19.8625212309999988    0.0000000000000000
     0.0000000000000000    0.0000000000000000   13.3711533340000006
   O    Si   Ru   C    H 
   192    96     4     2     3
Selective dynamics
Direct
  0.5030654338903773  0.0547710243126716  0.7109741394593669   F   F   F
  0.9938037272816374  0.5687676187546487  0.2137020375965903   F   F   F
  0.5060256722197778  0.4361982073457966  0.7142150600520267   F   F   F
  0.9970584239800289  0.9370538470248206  0.2110781350844420   F   F   F
  0.4953791247034971  0.9423775174477385  0.2856593659226760   F   F   F
  0.0061482602111482  0.4303306208844901  0.7907573397287919   F   F   F
  0.4958815591158299  0.5653149500317625  0.2923799882594480   F   F   F
  0.0027025230515818  0.0605225616357856  0.7847657076278765   F   F   F
  0.3858902138617921  0.0664374855943137  0.7902747811966577   F   F   F
  0.1075169524584396  0.5610493158203269  0.3069198929851424   F   F   F
  0.3918435552749102  0.4397555071489094  0.8066694168690134   F   F   F
  0.1153667293206198  0.9330339526954461  0.2912730732797115   F   F   F
  0.6129527930193674  0.9352448617717783  0.2054754442159279   F   F   F
  0.8919119014357335  0.4399630703086004  0.6985755113597421   F   F   F
  0.6081479418738098  0.5579822216634653  0.1964603094961817   F   F   F
  0.8853112731856996  0.0659798395354443  0.7049162652577934   F   F   F
  0.4152542568865272  0.1337816851421181  0.6258590408406803   F   F   F
  0.0971627790127343  0.6337378555553457  0.1418955284885826   F   F   F
  0.4044320129874137  0.3702074972601892  0.6383080570442488   F   F   F
  0.0902612248505150  0.8624038627780237  0.1301129726856303   F   F   F
  0.5886229838443811  0.8647111573801496  0.3677533075868169   F   F   F
  0.9012136086004361  0.3677022751968764  0.8635909128153614   F   F   F
  0.6032882375128352  0.6269187880731053  0.3635386280741599   F   F   F
  0.9114045290723567  0.1385621181563934  0.8654634576256370   F   F   F
  0.4007635406696153  0.0005369709848537  0.6158017120274906   F   F   F
  0.0915168008320890  0.4994417003881964  0.1307596109050095   F   F   F
  0.4064384016706910  0.5048672672964827  0.6358077489608505   F   F   F
  0.0963981453200660  0.9967853573670524  0.1170405787100037   F   F   F
  0.5959111558484267  0.9978583634196596  0.3814288916812956   F   F   F
  0.9105652790550280  0.5016563944354147  0.8743767847389563   F   F   F
  0.5928329990487242  0.4942723480081526  0.3715052657031848   F   F   F
  0.9023407358729472  0.0052802551125168  0.8816469324992227   F   F   F
  0.3236286303448779  0.0393063264788722  0.9594976610427466   F   F   F
  0.1782309316270485  0.5368736604137183  0.4698809981410434   F   F   F
  0.3223204754225577  0.4624594422654624  0.9698466684781692   F   F   F
  0.1749519675229507  0.9637472074433902  0.4614974114097024   F   F   F
  0.6756299576419167  0.9644410797100846  0.0375579660310237   F   F   F
  0.8220492699445430  0.4623146207298277  0.5347642556919041   F   F   F
  0.6787814700455144  0.5349517861464719  0.0339046636737805   F   F   F
  0.8234805038942596  0.0364581945642612  0.5369702367223326   F   F   F
  0.3188221010583945  0.9542440263952656  0.8033469598561069   F   F   F
  0.1828245766620356  0.4530882359283268  0.3110418511415673   F   F   F
  0.3141878852909201  0.5475525966945156  0.8143192103134282   F   F   F
  0.1765356356120051  0.0483894917845404  0.3035987023439262   F   F   F
  0.6818570753381579  0.0469545495764905  0.1975506794277564   F   F   F
  0.8144366881201748  0.5464183301498622  0.6929483588735792   F   F   F
  0.6857244803594895  0.4518582800389339  0.1931679356696065   F   F   F
  0.8172169993685614  0.9535312001855445  0.6966358722680894   F   F   F
  0.2551414484669152  0.0696793517110947  0.7999252768128500   F   F   F
  0.2385801488171424  0.5741817369451638  0.3033420741974666   F   F   F
  0.2617184264413766  0.4265118367275349  0.8031104095418797   F   F   F
  0.2472994910723685  0.9370703881577924  0.3037977132679615   F   F   F
  0.7445416261518645  0.9308060345694926  0.1966295091413741   F   F   F
  0.7611089137266305  0.4254914070043441  0.7006303579718889   F   F   F
  0.7392303185883691  0.5723727418667579  0.1992478829428848   F   F   F
  0.7539007768029862  0.0694415114871560  0.6960991167727357   F   F   F
  0.2933742302804703  0.1293335446578538  0.0972718526564691   F   F   F
  0.2047203140188287  0.6218382037305545  0.6155827220995960   F   F   F
  0.2931193317217904  0.3795680643023971  0.1160654556155123   F   F   F
  0.1971981964939147  0.8748219957600725  0.6034612299518969   F   F   F
  0.7030077508960701  0.8753763023506451  0.8968120723575765   F   F   F
  0.7956479895761390  0.3771297082542873  0.3885892718194910   F   F   F
  0.7055379594666746  0.6216936719416921  0.8900407999071263   F   F   F
  0.7979440896727255  0.1239606338738000  0.3939711639598897   F   F   F
  0.2001972096274756  0.0483786280487237  0.0242593732010761   F   F   F
  0.3009544957687424  0.5484463951695631  0.5354262407826340   F   F   F
  0.1993012762701909  0.4568311577833697  0.0351543680661095   F   F   F
  0.2970029216524424  0.9466061978064815  0.5277710451529600   F   F   F
  0.7982993935150233  0.9529261451373685  0.9726896576925270   F   F   F
  0.6992734335241693  0.4515941570849193  0.4686763760517891   F   F   F
  0.8010278286406987  0.5439931597100269  0.9647236003970647   F   F   F
  0.7014593829390208  0.0482233575303255  0.4697592572858085   F   F   F
  0.2944798758931171  0.0007371704515364  0.1433893616889463   F   F   F
  0.2090063740955443  0.4909483078847714  0.6480432653518235   F   F   F
  0.2931408114671399  0.5106519835488612  0.1485123313965033   F   F   F
  0.2067012046472456  0.0049577449742912  0.6419848829488117   F   F   F
  0.7060566152600316  0.0057610065280613  0.8553151371728376   F   F   F
  0.7917886760405750  0.5083981207760786  0.3553680191042474   F   F   F
  0.7061287056630121  0.4907692707926685  0.8531926494249618   F   F   F
  0.7943600643393651  0.9938215536267805  0.3553632484573370   F   F   F
  0.1093243842221128  0.1302393613464261  0.0989812071186904   F   F   F
  0.3920379364679434  0.6350755756245690  0.6024875300793084   F   F   F
  0.1098982840997351  0.3690140203951771  0.0991115429174485   F   F   F
  0.3904783015248370  0.8672003879793593  0.6024481513634825   F   F   F
  0.8886122313091533  0.8716279302242214  0.8941845685350600   F   F   F
  0.6101824467072419  0.3639708241831912  0.4015384077158188   F   F   F
  0.8908564980830462  0.6323840529226956  0.9000849152514903   F   F   F
  0.6106413142507492  0.1308044008291560  0.3954448687741134   F   F   F
  0.0813868375885889  0.0548388693475346  0.9425430818761669   F   F   F
  0.4206498349909751  0.5495857812546916  0.4531811755572193   F   F   F
  0.0817522908434540  0.4509580828560757  0.9492720687583116   F   F   F
  0.4143097877517690  0.9426744039771719  0.4407251766505809   F   F   F
  0.9174391094392433  0.9437289635828208  0.0542129458341165   F   F   F
  0.5810686728279961  0.4445271592983318  0.5527613992429252   F   F   F
  0.9170084634514808  0.5537008359145617  0.0550897717533090   F   F   F
  0.5834689895422045  0.0581294180106653  0.5554760113560988   F   F   F
  0.1284553174610039  0.0779866106361311  0.7589315033942441   F   F   F
  0.3666554388048127  0.5790843977617968  0.2754985786710762   F   F   F
  0.1335111322715719  0.4193559095422259  0.7719855398865860   F   F   F
  0.3722680080349434  0.9245614901089851  0.2509352478431808   F   F   F
  0.8709470274071407  0.9196851577402470  0.2376632020051446   F   F   F
  0.6327240296499994  0.4163097351176361  0.7307719972983975   F   F   F
  0.8667290893138428  0.5819591833754743  0.2345678591245530   F   F   F
  0.6275140769840988  0.0791146473427276  0.7399252033241908   F   F   F
  0.0846929919991339  0.9567498258453426  0.8061631059971148   F   F   F
  0.4160586236150792  0.4594461177017166  0.3061258310305277   F   F   F
  0.0817890272129205  0.5398555493938417  0.7993729118893143   F   F   F
  0.4104642250489334  0.0435715234572385  0.3104929589829908   F   F   F
  0.9153257977398823  0.0409554104526038  0.1923661090504183   F   F   F
  0.5896867549012015  0.5390471507467396  0.6943076678046793   F   F   F
  0.9157142453818210  0.4613365162939544  0.2001320165914464   F   F   F
  0.5909065114728023  0.9568971315638066  0.6855881224966041   F   F   F
  0.2137413741351182  0.1395070405738679  0.6460202796207781   F   F   F
  0.2854952001275279  0.6442489281232042  0.1539761340137744   F   F   F
  0.2136698949179987  0.3567251466477117  0.6520960749061544   F   F   F
  0.2761887766722353  0.8670210691216340  0.1437643478359547   F   F   F
  0.7829646491829507  0.8597669426707455  0.3509837342799642   F   F   F
  0.7147541508334427  0.3563440298742577  0.8515331391800842   F   F   F
  0.7822405161491233  0.6422188443087791  0.3522400018124472   F   F   F
  0.7160737794133709  0.1397285730733486  0.8512681091861865   F   F   F
  0.4958373592518583  0.8667617365924656  0.7210345132758462   F   F   F
  0.0025545653776504  0.3614790344806309  0.2154538531056645   F   F   F
  0.5000551608208852  0.6351473041486599  0.7175387476560857   F   F   F
  0.0049065260606298  0.1378254484178569  0.2197081052920566   F   F   F
  0.5049681650535476  0.1340418645268855  0.2753370518221985   F   F   F
  0.0003101838576853  0.6438762542791991  0.7879188921079034   F   F   F
  0.5026839893903912  0.3607337151575081  0.2840415866177040   F   F   F
  0.9938740310468646  0.8619536604013476  0.7746531174021243   F   F   F
  0.3795497359465614  0.8354218428661042  0.7953833718840500   F   F   F
  0.1178082281083377  0.3365574900547585  0.2925797962638015   F   F   F
  0.3864319469049917  0.6590541532524625  0.7997253891486977   F   F   F
  0.1223378814591811  0.1690072611175708  0.2896371996791487   F   F   F
  0.6208678580743481  0.1652634691987984  0.2027985081328154   F   F   F
  0.8854092280978136  0.6594967114327090  0.7046737555926796   F   F   F
  0.6178494286042095  0.3364419214589560  0.2065308765490244   F   F   F
  0.8764438206685483  0.8348375323754169  0.7025953162123884   F   F   F
  0.4382715698302206  0.7496947170584178  0.6749483618671306   F   F   F
  0.0665523568547641  0.2504997899977184  0.1590802465291787   F   F   F
  0.5646382219125456  0.2480465169177393  0.3337719504149632   F   F   F
  0.9288791771772296  0.7515614510158315  0.8359437147367856   F   F   F
  0.3097415163343626  0.8684534331969189  0.9533676596451386   F   F   F
  0.1820593734387970  0.3653042899397931  0.4598340904950646   F   F   F
  0.3166291086159347  0.6369283787297206  0.9615276586401436   F   F   F
  0.1876084474126429  0.1344992899783577  0.4527096523299079   F   F   F
  0.6907081867843559  0.1294717416492972  0.0440854210261890   F   F   F
  0.8137548348174377  0.6327424924079352  0.5439474567631066   F   F   F
  0.6844668510155429  0.3658901834479238  0.0436154656632084   F   F   F
  0.8054630585162812  0.8707145655768969  0.5440486115442269   F   F   F
  0.2490014384844699  0.8427314820786762  0.7813761674637831   F   F   F
  0.2483650311330621  0.3383857458628512  0.2939560230158165   F   F   F
  0.2568571598430651  0.6653718899293324  0.7884703210248958   F   F   F
  0.2530036315547122  0.1561962769997649  0.2838836224717625   F   F   F
  0.7511832774990239  0.1596796166975523  0.2145366634808141   F   F   F
  0.7553730524905475  0.6639015624380846  0.7159903271856578   F   F   F
  0.7478124312234442  0.3359761074182970  0.2120017563536578   F   F   F
  0.7461914380687844  0.8416437323989570  0.7150024944949891   F   F   F
  0.2856234160755946  0.7534986355080164  0.0459673089858370   F   F   F
  0.2174691374176945  0.2496062577017142  0.5393628433138815   F   F   F
  0.7094147050660951  0.2481636489972487  0.9621592776074124   F   F   F
  0.7946069161034828  0.7514543258353470  0.4607786477336191   F   F   F
  0.1876946154828829  0.8377689972044138  0.0025133224838214   F   F   F
  0.3062458371450063  0.3466826279126565  0.5119199417704081   F   F   F
  0.1936187947277404  0.6600739112799801  0.0135464715636857   F   F   F
  0.3096932582664849  0.1559738163119917  0.5121202268703300   F   F   F
  0.8100837439009823  0.1636595019445579  0.9860102849719823   F   F   F
  0.6930194943578627  0.6696422724669233  0.4931006274624323   F   F   F
  0.8061541308959406  0.3366933621081714  0.9915589097680240   F   F   F
  0.6884681112365314  0.8287329489160058  0.4816852071913615   F   F   F
  0.0940452633605986  0.7460922259502780  0.0382968263310772   F   F   F
  0.3980508789705581  0.2531330277993860  0.5475462596171710   F   F   F
  0.9071937345827195  0.2533286779268877  0.9618681503803188   F   F   F
  0.5878663743101669  0.7451926850995960  0.4481477076550036   F   F   F
  0.0672623539252513  0.8566504001653001  0.9351168057718837   F   F   F
  0.4264803355011964  0.3630533831398708  0.4428242427642601   F   F   F
  0.0762031795446489  0.6289059174693037  0.9462433997753763   F   F   F
  0.4269568170916287  0.1498156296967892  0.4296542108908099   F   F   F
  0.9275492608427385  0.1402706861718741  0.0618308654348425   F   F   F
  0.5759993908623500  0.6347234371235402  0.5589720642609066   F   F   F
  0.9239742313425410  0.3685838190952495  0.0586248576707717   F   F   F
  0.5742527364199859  0.8526321609088683  0.5661882110422241   F   F   F
  0.1204635447164577  0.8343348437301898  0.7545707543367541   F   F   F
  0.3760585639060281  0.3371461747247437  0.2607834141924457   F   F   F
  0.1278422567784645  0.6621950048226140  0.7673948194444264   F   F   F
  0.3796018072251997  0.1634588951271994  0.2416960561371866   F   F   F
  0.8790338996153508  0.1629068838280006  0.2461750688257638   F   F   F
  0.6264168814057314  0.6621232957516625  0.7401518459206784   F   F   F
  0.8763143406012404  0.3376967506131834  0.2407943769010075   F   F   F
  0.6192915892365747  0.8354431790419454  0.7529201660523270   F   F   F
  0.1983156451395729  0.7489051239958258  0.6627151651839966   F   F   F
  0.2988134959657884  0.2525910640121296  0.1641188157661020   F   F   F
  0.8026287795578639  0.2500380808061848  0.3381156549092381   F   F   F
  0.6993322217878699  0.7493948709577367  0.8404917610450013   F   F   F
  0.4258699262990646  0.0633511106672842  0.6840945271114407   F   F   F
  0.0725074844784288  0.5653978248597795  0.1972777494648099   F   F   F
  0.4271859624207579  0.4373774984837908  0.6973359034587290   F   F   F
  0.0747924588340538  0.9330791352903702  0.1864883717863322   F   F   F
  0.5731872684808010  0.9357045720720478  0.3102880207853431   F   F   F
  0.9273197901141756  0.4353540370616216  0.8076682787286629   F   F   F
  0.5741693047171026  0.5610905720490535  0.3071254798060608   F   F   F
  0.9252422460617424  0.0670572881881455  0.8105292426075863   F   F   F
  0.3209746706004495  0.0324304271940221  0.8390181575932232   F   F   F
  0.1768140920988586  0.5309012987296171  0.3482034643232197   F   F   F
  0.3224578877620061  0.4689747837286333  0.8491657769589622   F   F   F
  0.1782767115855037  0.9706396696080972  0.3406833414571366   F   F   F
  0.6787094576468746  0.9693114098415876  0.1584699421891571   F   F   F
  0.8224105269250899  0.4684670620791636  0.6556601654310512   F   F   F
  0.6781496789806525  0.5293726336422395  0.1545902677704589   F   F   F
  0.8201368940779048  0.0313269352138121  0.6577405856022480   F   F   F
  0.2771099141053384  0.0550987361723969  0.0555276649690839   F   F   F
  0.2232933498523053  0.5492826602366208  0.5675848842337174   F   F   F
  0.2764239070698622  0.4523387662986593  0.0683797910856327   F   F   F
  0.2196807104384106  0.9473927580067212  0.5587579494091912   F   F   F
  0.7214028387249343  0.9495588196138414  0.9401460314396530   F   F   F
  0.7768568677195731  0.4496767261039665  0.4364301943200175   F   F   F
  0.7236097491324003  0.5479634657827077  0.9350076303784220   F   F   F
  0.7788684699186632  0.0506032392908082  0.4383163221070419   F   F   F
  0.1220697716150028  0.0575139134661455  0.0465189250043565   F   F   F
  0.3795228238428905  0.5584787964781981  0.5546424018291347   F   F   F
  0.1210273274406717  0.4441409488243409  0.0538036086053992   F   F   F
  0.3754103792988417  0.9382711590394877  0.5472757460774815   F   F   F
  0.8764691642732672  0.9432649253894425  0.9501463723485273   F   F   F
  0.6214561705566339  0.4387072551341404  0.4485729512740804   F   F   F
  0.8794609671095941  0.5579204778389268  0.9483708063688567   F   F   F
  0.6232125300793427  0.0589330308102660  0.4498238781836505   F   F   F
  0.0743665863731522  0.0369788099642250  0.8240555164513523   F   F   F
  0.4250632966464565  0.5390829853154386  0.3324359456208370   F   F   F
  0.0757311001424128  0.4605059478343634  0.8288377054272260   F   F   F
  0.4231447751516910  0.9639470298672634  0.3241642852307010   F   F   F
  0.9252223141871667  0.9607521234810790  0.1725411030007393   F   F   F
  0.5773176622020273  0.4591640793756895  0.6719074730295773   F   F   F
  0.9233032506069279  0.5408496395611238  0.1745779314070290   F   F   F
  0.5761812107433357  0.0370203988751996  0.6718776686264860   F   F   F
  0.2008619380921814  0.0722072976301362  0.7103152914900122   F   F   F
  0.2960640675445987  0.5764366506851033  0.2200278110828719   F   F   F
  0.2042748395355787  0.4240945216667953  0.7182112791311539   F   F   F
  0.2969829192077214  0.9326330364794870  0.2098195419481783   F   F   F
  0.7983690436988695  0.9267744948332250  0.2862016737656816   F   F   F
  0.7038297298611269  0.4232947878058653  0.7846235375913864   F   F   F
  0.7951356611439380  0.5751180712847699  0.2861378911089716   F   F   F
  0.7009555729595078  0.0726769254061495  0.7868883786297403   F   F   F
  0.4259119955945394  0.8298448590284977  0.6963840791401452   F   F   F
  0.0740695478232496  0.3291183106077185  0.1910592668168505   F   F   F
  0.4298957363649549  0.6708838834882442  0.6998616133669771   F   F   F
  0.0753108389704735  0.1718987126333644  0.1910339568093491   F   F   F
  0.5746786236461645  0.1696947403376896  0.3023798492322172   F   F   F
  0.9263900971353962  0.6720483112561695  0.8079492234661885   F   F   F
  0.5736446737406951  0.3269831663880751  0.3073345224307360   F   F   F
  0.9223585694853753  0.8298832522766801  0.8025713354725212   F   F   F
  0.3141136221522984  0.8751069356901411  0.8323307183799997   F   F   F
  0.1823621162252635  0.3729921888238508  0.3388740060739437   F   F   F
  0.3180496515958424  0.6268443709028304  0.8409662650627183   F   F   F
  0.1850845789873858  0.1275561913527881  0.3319243015828377   F   F   F
  0.6860171717681496  0.1258910063650021  0.1653941970717767   F   F   F
  0.8176744678742622  0.6256662769792740  0.6648920089481507   F   F   F
  0.6837957065250251  0.3724881344934445  0.1645509422122942   F   F   F
  0.8114796936694049  0.8747920370292093  0.6648892822850101   F   F   F
  0.2640175652201719  0.8314585253848961  0.0364265267428934   F   F   F
  0.2302530947828032  0.3294967993496698  0.5411355223748586   F   F   F
  0.2700268494120763  0.6738365031074736  0.0449538148929065   F   F   F
  0.2328136927195459  0.1702033831315930  0.5377625298804176   F   F   F
  0.7323413516636776  0.1704419886603930  0.9604917431087188   F   F   F
  0.7712586719473435  0.6738974665484392  0.4619784336961246   F   F   F
  0.7293505984547792  0.3267209956319093  0.9616171211120701   F   F   F
  0.7673258098606084  0.8278249607231771  0.4587867571782596   F   F   F
  0.1099456005616162  0.8255508620538734  0.0267333973977983   F   F   F
  0.3837863141207620  0.3327190043849981  0.5349767050632082   F   F   F
  0.1156875535007842  0.6676205695318771  0.0351630658126041   F   F   F
  0.3872046970767329  0.1733340392919303  0.5285260176345332   F   F   F
  0.8886859475181836  0.1742097232766255  0.9688400151927468   F   F   F
  0.6155309454341307  0.6680810404700139  0.4655848405939693   F   F   F
  0.8846197035045194  0.3314299446666098  0.9688208227476309   F   F   F
  0.6093620757859455  0.8244274197723414  0.4662918362134079   F   F   F
  0.0668175611427841  0.8777521713552687  0.8175764577824864   F   F   F
  0.4298223252354134  0.3805234749900421  0.3237644596806888   F   F   F
  0.0715211442747332  0.6187292811260789  0.8255670130217965   F   F   F
  0.4299801353336576  0.1231490541765012  0.3148496503493377   F   F   F
  0.9313630902754468  0.1204103605777007  0.1796550400921575   F   F   F
  0.5738805972907031  0.6177000430853354  0.6778836956876901   F   F   F
  0.9293507673278825  0.3822121017895981  0.1785685390697296   F   F   F
  0.5703474677016089  0.8781517628714326  0.6815088646707750   F   F   F
  0.1914894377128604  0.8264310682647462  0.7004165577272801   F   F   F
  0.3044300682191974  0.3280858459705911  0.2089127120682761   F   F   F
  0.1964353954467768  0.6734104521843349  0.7087443105263418   F   F   F
  0.3060897256887785  0.1745135037211085  0.1972472379623511   F   F   F
  0.8076274992644343  0.1731074269803798  0.2982654669761757   F   F   F
  0.6968720473000829  0.6730665813963412  0.7968396396926778   F   F   F
  0.8057917243344761  0.3264878500220263  0.2950159110036807   F   F   F
  0.6923917944788940  0.8263067403688282  0.8015949078508484   F   F   F
  0.3185632225130419  0.7590401775048008  0.3384247084289100   F   F   F
  0.4171379508531530  0.8005973740808869  0.2623727859734615   F   F   F
  0.3773759943639661  0.7133156449100824  0.4612487720047440   F   F   F
  0.4736646130244822  0.7497481895545945  0.3980755619529504   F   F   F
  0.4230956147913716  0.7125862039556097  0.2301723498494326   T   T   T
  0.4514849276150983  0.7399701330737187  0.1061070351117976   T   T   T
  0.4311753056270007  0.6916849964981040  0.0765717159949872   T   T   T
  0.4355998330513273  0.7823121607169838  0.0536218811556921   T   T   T
  0.5058351418979328  0.7339306295616483  0.1070022891441629   T   T   T
 
  0.00000000E+00  0.00000000E+00  0.00000000E+00
  0.00000000E+00  0.00000000E+00  0.00000000E+00
  0.00000000E+00  0.00000000E+00  0.00000000E+00
  0.00000000E+00  0.00000000E+00  0.00000000E+00
  0.00000000E+00  0.00000000E+00  0.00000000E+00
  0.00000000E+00  0.00000000E+00  0.00000000E+00
  0.00000000E+00  0.00000000E+00  0.00000000E+00
  0.00000000E+00  0.00000000E+00  0.00000000E+00
  0.00000000E+00  0.00000000E+00  0.00000000E+00
  0.00000000E+00  0.00000000E+00  0.00000000E+00
  0.00000000E+00  0.00000000E+00  0.00000000E+00
  0.00000000E+00  0.00000000E+00  0.00000000E+00
  0.00000000E+00  0.00000000E+00  0.00000000E+00
  0.00000000E+00  0.00000000E+00  0.00000000E+00
  0.00000000E+00  0.00000000E+00  0.00000000E+00
  0.00000000E+00  0.00000000E+00  0.00000000E+00
  0.00000000E+00  0.00000000E+00  0.00000000E+00
  0.00000000E+00  0.00000000E+00  0.00000000E+00
  0.00000000E+00  0.00000000E+00  0.00000000E+00
  0.00000000E+00  0.00000000E+00  0.00000000E+00
  0.00000000E+00  0.00000000E+00  0.00000000E+00
  0.00000000E+00  0.00000000E+00  0.00000000E+00
  0.00000000E+00  0.00000000E+00  0.00000000E+00
  0.00000000E+00  0.00000000E+00  0.00000000E+00
  0.00000000E+00  0.00000000E+00  0.00000000E+00
  0.00000000E+00  0.00000000E+00  0.00000000E+00
  0.00000000E+00  0.00000000E+00  0.00000000E+00
  0.00000000E+00  0.00000000E+00  0.00000000E+00
  0.00000000E+00  0.00000000E+00  0.00000000E+00
  0.00000000E+00  0.00000000E+00  0.00000000E+00
  0.00000000E+00  0.00000000E+00  0.00000000E+00
  0.00000000E+00  0.00000000E+00  0.00000000E+00
  0.00000000E+00  0.00000000E+00  0.00000000E+00
  0.00000000E+00  0.00000000E+00  0.00000000E+00
  0.00000000E+00  0.00000000E+00  0.00000000E+00
  0.00000000E+00  0.00000000E+00  0.00000000E+00
  0.00000000E+00  0.00000000E+00  0.00000000E+00
  0.00000000E+00  0.00000000E+00  0.00000000E+00
  0.00000000E+00  0.00000000E+00  0.00000000E+00
  0.00000000E+00  0.00000000E+00  0.00000000E+00
  0.00000000E+00  0.00000000E+00  0.00000000E+00
  0.00000000E+00  0.00000000E+00  0.00000000E+00
  0.00000000E+00  0.00000000E+00  0.00000000E+00
  0.00000000E+00  0.00000000E+00  0.00000000E+00
  0.00000000E+00  0.00000000E+00  0.00000000E+00
  0.00000000E+00  0.00000000E+00  0.00000000E+00
  0.00000000E+00  0.00000000E+00  0.00000000E+00
  0.00000000E+00  0.00000000E+00  0.00000000E+00
  0.00000000E+00  0.00000000E+00  0.00000000E+00
  0.00000000E+00  0.00000000E+00  0.00000000E+00
  0.00000000E+00  0.00000000E+00  0.00000000E+00
  0.00000000E+00  0.00000000E+00  0.00000000E+00
  0.00000000E+00  0.00000000E+00  0.00000000E+00
  0.00000000E+00  0.00000000E+00  0.00000000E+00
  0.00000000E+00  0.00000000E+00  0.00000000E+00
  0.00000000E+00  0.00000000E+00  0.00000000E+00
  0.00000000E+00  0.00000000E+00  0.00000000E+00
  0.00000000E+00  0.00000000E+00  0.00000000E+00
  0.00000000E+00  0.00000000E+00  0.00000000E+00
  0.00000000E+00  0.00000000E+00  0.00000000E+00
  0.00000000E+00  0.00000000E+00  0.00000000E+00
  0.00000000E+00  0.00000000E+00  0.00000000E+00
  0.00000000E+00  0.00000000E+00  0.00000000E+00
  0.00000000E+00  0.00000000E+00  0.00000000E+00
  0.00000000E+00  0.00000000E+00  0.00000000E+00
  0.00000000E+00  0.00000000E+00  0.00000000E+00
  0.00000000E+00  0.00000000E+00  0.00000000E+00
  0.00000000E+00  0.00000000E+00  0.00000000E+00
  0.00000000E+00  0.00000000E+00  0.00000000E+00
  0.00000000E+00  0.00000000E+00  0.00000000E+00
  0.00000000E+00  0.00000000E+00  0.00000000E+00
  0.00000000E+00  0.00000000E+00  0.00000000E+00
  0.00000000E+00  0.00000000E+00  0.00000000E+00
  0.00000000E+00  0.00000000E+00  0.00000000E+00
  0.00000000E+00  0.00000000E+00  0.00000000E+00
  0.00000000E+00  0.00000000E+00  0.00000000E+00
  0.00000000E+00  0.00000000E+00  0.00000000E+00
  0.00000000E+00  0.00000000E+00  0.00000000E+00
  0.00000000E+00  0.00000000E+00  0.00000000E+00
  0.00000000E+00  0.00000000E+00  0.00000000E+00
  0.00000000E+00  0.00000000E+00  0.00000000E+00
  0.00000000E+00  0.00000000E+00  0.00000000E+00
  0.00000000E+00  0.00000000E+00  0.00000000E+00
  0.00000000E+00  0.00000000E+00  0.00000000E+00
  0.00000000E+00  0.00000000E+00  0.00000000E+00
  0.00000000E+00  0.00000000E+00  0.00000000E+00
  0.00000000E+00  0.00000000E+00  0.00000000E+00
  0.00000000E+00  0.00000000E+00  0.00000000E+00
  0.00000000E+00  0.00000000E+00  0.00000000E+00
  0.00000000E+00  0.00000000E+00  0.00000000E+00
  0.00000000E+00  0.00000000E+00  0.00000000E+00
  0.00000000E+00  0.00000000E+00  0.00000000E+00
  0.00000000E+00  0.00000000E+00  0.00000000E+00
  0.00000000E+00  0.00000000E+00  0.00000000E+00
  0.00000000E+00  0.00000000E+00  0.00000000E+00
  0.00000000E+00  0.00000000E+00  0.00000000E+00
  0.00000000E+00  0.00000000E+00  0.00000000E+00
  0.00000000E+00  0.00000000E+00  0.00000000E+00
  0.00000000E+00  0.00000000E+00  0.00000000E+00
  0.00000000E+00  0.00000000E+00  0.00000000E+00
  0.00000000E+00  0.00000000E+00  0.00000000E+00
  0.00000000E+00  0.00000000E+00  0.00000000E+00
  0.00000000E+00  0.00000000E+00  0.00000000E+00
  0.00000000E+00  0.00000000E+00  0.00000000E+00
  0.00000000E+00  0.00000000E+00  0.00000000E+00
  0.00000000E+00  0.00000000E+00  0.00000000E+00
  0.00000000E+00  0.00000000E+00  0.00000000E+00
  0.00000000E+00  0.00000000E+00  0.00000000E+00
  0.00000000E+00  0.00000000E+00  0.00000000E+00
  0.00000000E+00  0.00000000E+00  0.00000000E+00
  0.00000000E+00  0.00000000E+00  0.00000000E+00
  0.00000000E+00  0.00000000E+00  0.00000000E+00
  0.00000000E+00  0.00000000E+00  0.00000000E+00
  0.00000000E+00  0.00000000E+00  0.00000000E+00
  0.00000000E+00  0.00000000E+00  0.00000000E+00
  0.00000000E+00  0.00000000E+00  0.00000000E+00
  0.00000000E+00  0.00000000E+00  0.00000000E+00
  0.00000000E+00  0.00000000E+00  0.00000000E+00
  0.00000000E+00  0.00000000E+00  0.00000000E+00
  0.00000000E+00  0.00000000E+00  0.00000000E+00
  0.00000000E+00  0.00000000E+00  0.00000000E+00
  0.00000000E+00  0.00000000E+00  0.00000000E+00
  0.00000000E+00  0.00000000E+00  0.00000000E+00
  0.00000000E+00  0.00000000E+00  0.00000000E+00
  0.00000000E+00  0.00000000E+00  0.00000000E+00
  0.00000000E+00  0.00000000E+00  0.00000000E+00
  0.00000000E+00  0.00000000E+00  0.00000000E+00
  0.00000000E+00  0.00000000E+00  0.00000000E+00
  0.00000000E+00  0.00000000E+00  0.00000000E+00
  0.00000000E+00  0.00000000E+00  0.00000000E+00
  0.00000000E+00  0.00000000E+00  0.00000000E+00
  0.00000000E+00  0.00000000E+00  0.00000000E+00
  0.00000000E+00  0.00000000E+00  0.00000000E+00
  0.00000000E+00  0.00000000E+00  0.00000000E+00
  0.00000000E+00  0.00000000E+00  0.00000000E+00
  0.00000000E+00  0.00000000E+00  0.00000000E+00
  0.00000000E+00  0.00000000E+00  0.00000000E+00
  0.00000000E+00  0.00000000E+00  0.00000000E+00
  0.00000000E+00  0.00000000E+00  0.00000000E+00
  0.00000000E+00  0.00000000E+00  0.00000000E+00
  0.00000000E+00  0.00000000E+00  0.00000000E+00
  0.00000000E+00  0.00000000E+00  0.00000000E+00
  0.00000000E+00  0.00000000E+00  0.00000000E+00
  0.00000000E+00  0.00000000E+00  0.00000000E+00
  0.00000000E+00  0.00000000E+00  0.00000000E+00
  0.00000000E+00  0.00000000E+00  0.00000000E+00
  0.00000000E+00  0.00000000E+00  0.00000000E+00
  0.00000000E+00  0.00000000E+00  0.00000000E+00
  0.00000000E+00  0.00000000E+00  0.00000000E+00
  0.00000000E+00  0.00000000E+00  0.00000000E+00
  0.00000000E+00  0.00000000E+00  0.00000000E+00
  0.00000000E+00  0.00000000E+00  0.00000000E+00
  0.00000000E+00  0.00000000E+00  0.00000000E+00
  0.00000000E+00  0.00000000E+00  0.00000000E+00
  0.00000000E+00  0.00000000E+00  0.00000000E+00
  0.00000000E+00  0.00000000E+00  0.00000000E+00
  0.00000000E+00  0.00000000E+00  0.00000000E+00
  0.00000000E+00  0.00000000E+00  0.00000000E+00
  0.00000000E+00  0.00000000E+00  0.00000000E+00
  0.00000000E+00  0.00000000E+00  0.00000000E+00
  0.00000000E+00  0.00000000E+00  0.00000000E+00
  0.00000000E+00  0.00000000E+00  0.00000000E+00