O  Si Ru C  H                           
   1.00000000000000     
    20.3096463179830877    0.0000000000000000    0.0000000000000000
     0.0000000000000000   19.8625212307842212    0.0000000000000000
     0.0000000000000000    0.0000000000000000   13.3711533343531652
   O    Si   Ru   C    H 
   192    96     3     1     3
Selective dynamics
Direct
  0.5029313868893084  0.0736056898586739  0.7056797488396072   F   F   F
  0.9970709342305923  0.5700941431506195  0.2101107417792676   F   F   F
  0.5029156782155368  0.4264032227791006  0.7056185113083657   F   F   F
  0.9970942898710007  0.9298957265229575  0.2100463142383973   F   F   F
  0.4975574659515019  0.9259320209253801  0.2924029726598221   F   F   F
  0.0035142782013793  0.4285785333706329  0.7894654952589875   F   F   F
  0.4973419424593359  0.5738273672456700  0.2928162298377686   F   F   F
  0.0035156998930290  0.0713936659300103  0.7894054086061644   F   F   F
  0.3889542273213706  0.0656441528638965  0.7983425228615957   F   F   F
  0.1126061781497114  0.5674729697592085  0.2979632816755640   F   F   F
  0.3889565314183088  0.4344077602963097  0.7983868158471594   F   F   F
  0.1127932706100125  0.9326000546086846  0.2985175213001057   F   F   F
  0.6111500690032301  0.9354656367777494  0.1985229374786783   F   F   F
  0.8876286392355013  0.4318494694530202  0.7019652330840529   F   F   F
  0.6111791562444324  0.5643443696484525  0.1989117753584750   F   F   F
  0.8876421007713020  0.0681313477328516  0.7019665889477693   F   F   F
  0.4000702401828562  0.1397116467327848  0.6347682267361776   F   F   F
  0.0965960753333803  0.6386497008528451  0.1331780686473820   F   F   F
  0.4000010007236909  0.3603105879493285  0.6348399781347496   F   F   F
  0.0965181783234286  0.8612647188506415  0.1338048338707623   F   F   F
  0.6046325073027106  0.8650743436822523  0.3639251734667397   F   F   F
  0.9036755615652226  0.3610245773759218  0.8673040386578066   F   F   F
  0.6035989958014696  0.6359437824081979  0.3641658557780403   F   F   F
  0.9036992471418515  0.1389825598366912  0.8673039788316856   F   F   F
  0.4050655113940564  0.0057646817941617  0.6215134371931086   F   F   F
  0.0958457332526237  0.5043192277067945  0.1236977153988050   F   F   F
  0.4050586462452657  0.4942567344934403  0.6215302229100601   F   F   F
  0.0959111461255375  0.9959423148801392  0.1233716855690616   F   F   F
  0.5939675863245242  0.9980385549020383  0.3731994077214011   F   F   F
  0.9056829491459126  0.4953935643539253  0.8755535665546290   F   F   F
  0.5940466326889791  0.5027444043629359  0.3733608890738367   F   F   F
  0.9056595872037789  0.0046264270214209  0.8755804782924201   F   F   F
  0.3235211054331515  0.0394013019014068  0.9647680237936882   F   F   F
  0.1756180629894999  0.5374345279888786  0.4652872393753356   F   F   F
  0.3235336788702554  0.4606790405103780  0.9647993898373528   F   F   F
  0.1752643393314912  0.9625179196056521  0.4653749277269057   F   F   F
  0.6780305923335277  0.9624630603571802  0.0350195268626905   F   F   F
  0.8237836134452152  0.4615868091194812  0.5352099473445904   F   F   F
  0.6780711611733494  0.5378053567495655  0.0349162948280792   F   F   F
  0.8238493049878386  0.0384170375190678  0.5351945646320146   F   F   F
  0.3182728643497228  0.9540104307330921  0.8082703957550805   F   F   F
  0.1786078986702435  0.4538076048119990  0.3065155543288469   F   F   F
  0.3183323503449884  0.5458119679295024  0.8089313053441884   F   F   F
  0.1786239398476823  0.0462267592944556  0.3066259419418813   F   F   F
  0.6820013519468162  0.0465699311238339  0.1921119024465554   F   F   F
  0.8214144135242520  0.5454915428088256  0.6932714081365319   F   F   F
  0.6819586530624449  0.4534452327976624  0.1921742266583024   F   F   F
  0.8213240119727985  0.9545336988895059  0.6932490653799874   F   F   F
  0.2577300385967263  0.0712151193591950  0.8008806917575768   F   F   F
  0.2442054367478050  0.5683368703561058  0.3043538916051887   F   F   F
  0.2577191747787495  0.4288522631963474  0.8009366206518678   F   F   F
  0.2443353056234159  0.9318538061822963  0.3047748045096128   F   F   F
  0.7422526721085774  0.9296147635971153  0.1992293558301270   F   F   F
  0.7561592371919161  0.4303497896917960  0.6971029160035798   F   F   F
  0.7426130491693641  0.5705067506457482  0.1994198242860037   F   F   F
  0.7561903675890775  0.0697459924549122  0.6970409788473901   F   F   F
  0.2918026443697599  0.1258079261735006  0.1067963653071473   F   F   F
  0.2085120173136588  0.6249392490810450  0.6068798336888790   F   F   F
  0.2918261136447882  0.3742766233393411  0.1068324422843716   F   F   F
  0.2086423447418255  0.8753798626553646  0.6066897681255554   F   F   F
  0.7092130158360703  0.8736098010964071  0.8950347078574126   F   F   F
  0.7912532446892442  0.3754796530182176  0.3929801966743725   F   F   F
  0.7092504192044302  0.6265640466138365  0.8951515970124930   F   F   F
  0.7912741441690585  0.1245213091666670  0.3929766754486721   F   F   F
  0.1999472134242524  0.0448986232559676  0.0271416060308454   F   F   F
  0.2989753176193872  0.5415383176022814  0.5292666542455251   F   F   F
  0.1999804522011601  0.4552219822723913  0.0272602871076728   F   F   F
  0.2990862494745699  0.9588386769168835  0.5289534359615686   F   F   F
  0.8012655823653674  0.9555448952027206  0.9711515610572761   F   F   F
  0.7008219671358233  0.4591811110342405  0.4690381188261199   F   F   F
  0.8012938275532946  0.5445260378419476  0.9709889062156805   F   F   F
  0.7008800732290226  0.0408491033289380  0.4691438708107398   F   F   F
  0.2934208150344446  0.9953468595463448  0.1461154652375640   F   F   F
  0.2040696743860266  0.4948558576368853  0.6475120168087685   F   F   F
  0.2926439984467493  0.5042520563626951  0.1449823976397226   F   F   F
  0.2040441988506743  0.0052439020459971  0.6474578734085128   F   F   F
  0.7071124383613636  0.0028392740661118  0.8521277571796944   F   F   F
  0.7971303246840407  0.5056337467205054  0.3532314118686415   F   F   F
  0.7069775764302619  0.4974163601146984  0.8519761676685391   F   F   F
  0.7971278123090002  0.9943634884681458  0.3532314846451072   F   F   F
  0.1086701585645571  0.1280741946255546  0.0975328538727638   F   F   F
  0.3876749962250301  0.6255377197041767  0.6044271112060784   F   F   F
  0.1087477464161637  0.3719944087173346  0.0976850189479990   F   F   F
  0.3874435266530298  0.8748215659537379  0.6044340781193256   F   F   F
  0.8929839297644264  0.8724269328560581  0.9012197273660760   F   F   F
  0.6104018451768169  0.3721363392326253  0.4053239396652444   F   F   F
  0.8930887974255555  0.6276141028285736  0.9010143957161034   F   F   F
  0.6104417825862996  0.1278500429254379  0.4053218263038474   F   F   F
  0.0807734370939954  0.0483032403584929  0.9452477260277163   F   F   F
  0.4172138521357027  0.5503572703176758  0.4450795356931181   F   F   F
  0.0808185471576763  0.4516975652555075  0.9453131519252196   F   F   F
  0.4173595766311919  0.9499017503028355  0.4448981398057583   F   F   F
  0.9199524510283652  0.9518187973140186  0.0541401326310762   F   F   F
  0.5830814480259718  0.4549093313654353  0.5549128449597092   F   F   F
  0.9199212379819528  0.5482574728725140  0.0541149986303822   F   F   F
  0.5831228156042272  0.0451464834213269  0.5549966504428596   F   F   F
  0.1303114809476682  0.0807154991343424  0.7670226905429871   F   F   F
  0.3708827117351561  0.5763115528146585  0.2620560035449984   F   F   F
  0.1302881717641142  0.4194516986916810  0.7670290975606235   F   F   F
  0.3710148138072569  0.9210720720050887  0.2619326164117197   F   F   F
  0.8701595760413738  0.9189852154441738  0.2322032985087574   F   F   F
  0.6288756656036654  0.4252149893320478  0.7357356816213851   F   F   F
  0.8701508338934900  0.5810218374011313  0.2322076613055799   F   F   F
  0.6288936256385966  0.0748392504498838  0.7358029685320986   F   F   F
  0.0772414063835143  0.9609013339319787  0.7944302682143416   F   F   F
  0.4275200467393532  0.4615609395028955  0.2972658848981098   F   F   F
  0.0770267045160509  0.5394566850468721  0.7945463687323766   F   F   F
  0.4274623327397435  0.0385276249840274  0.2972016585412760   F   F   F
  0.9218028690069318  0.0394959516101281  0.2053045552028863   F   F   F
  0.5682706635752268  0.5421299651585372  0.7043667853767843   F   F   F
  0.9217617668736366  0.4605084408155591  0.2052318574095011   F   F   F
  0.5679880822307695  0.9581516482567878  0.7040993747580799   F   F   F
  0.2140483791176209  0.1396588507760299  0.6476179914056956   F   F   F
  0.2823265179689969  0.6386559727434715  0.1501862185057945   F   F   F
  0.2140557210209764  0.3604587401518557  0.6476383823308254   F   F   F
  0.2831679363370441  0.8610038596831799  0.1502120969526075   F   F   F
  0.7863049962097364  0.8601651198632894  0.3518892825403768   F   F   F
  0.7123587992555329  0.3628369358615799  0.8520376717829521   F   F   F
  0.7862732268956378  0.6398332644664819  0.3518808652360974   F   F   F
  0.7123388029321944  0.1374034236275961  0.8518829018355945   F   F   F
  0.4985395937805848  0.8436498769489447  0.7059749178745491   F   F   F
  0.0028288038109281  0.3558961257219622  0.2142594428784221   F   F   F
  0.4984382294931393  0.6564042373091539  0.7061503955639523   F   F   F
  0.0028229971393401  0.1441421427197795  0.2142598869098009   F   F   F
  0.5033529947031496  0.1470155195142624  0.2906108599047315   F   F   F
  0.9988514549625336  0.6462333220820256  0.7840259730912820   F   F   F
  0.5033366433387627  0.3529824666492871  0.2906014649437694   F   F   F
  0.9988500309416679  0.8540694227265178  0.7843302120182472   F   F   F
  0.3845618618855084  0.8398705753069109  0.7982178743864736   F   F   F
  0.1198337466424348  0.3348999321217079  0.2890771359474797   F   F   F
  0.3841455142927472  0.6606527102060298  0.7973097111304384   F   F   F
  0.1198773635622601  0.1651020467818540  0.2889453652702301   F   F   F
  0.6200013696644291  0.1635879438029804  0.2129112530053945   F   F   F
  0.8813377997980822  0.6641158658221187  0.7095232659055597   F   F   F
  0.6199941015139743  0.3363985462862971  0.2129218146063749   F   F   F
  0.8813885838864692  0.8360387771859550  0.7096220728919036   F   F   F
  0.4096238189822046  0.7500383039570977  0.6543126871866818   F   F   F
  0.0728916250986487  0.2500219477076655  0.1527384108185714   F   F   F
  0.5775769937277815  0.2499911476483092  0.3505971653563833   F   F   F
  0.9262285358026503  0.7500804912453987  0.8460044933540374   F   F   F
  0.3149348656008044  0.8678530698355118  0.9576201303059122   F   F   F
  0.1828627501077733  0.3674513296048261  0.4556845427901592   F   F   F
  0.3150454666989546  0.6327079538875964  0.9577126231642126   F   F   F
  0.1828751154451780  0.1327103075486562  0.4556594843890025   F   F   F
  0.6825392693621524  0.1351271687794977  0.0447132959264991   F   F   F
  0.8170780332866485  0.6318096877646795  0.5440006838948577   F   F   F
  0.6825328578989982  0.3649442790542068  0.0447631787183127   F   F   F
  0.8171272077369878  0.8681638962693086  0.5440096494444688   F   F   F
  0.2545356807194423  0.8395478303598836  0.7878217051014857   F   F   F
  0.2501716274064023  0.3425288622723457  0.2900284312903381   F   F   F
  0.2537048925527543  0.6605255474061948  0.7867846502156581   F   F   F
  0.2502265706462694  0.1574855251960372  0.2900383464422731   F   F   F
  0.7505811918265763  0.1593212345099744  0.2099419278146399   F   F   F
  0.7509271475727246  0.6570062586898047  0.7107032158761868   F   F   F
  0.7505784352226854  0.3407012918105750  0.2099504926721565   F   F   F
  0.7509348599909558  0.8429853188177248  0.7106799899741247   F   F   F
  0.2955835332734935  0.7504572738609241  0.0466331550477292   F   F   F
  0.2022306613424192  0.2500757930892874  0.5427846367398104   F   F   F
  0.7051782305896666  0.2500589224745298  0.9513539390382775   F   F   F
  0.8014995654385402  0.7499956900529199  0.4572254521981165   F   F   F
  0.1959128941338975  0.8323259816231641  0.0093836752295928   F   F   F
  0.3032835738035615  0.3324159100768824  0.5082364876589978   F   F   F
  0.1953656595790747  0.6682313067676944  0.0090171199417171   F   F   F
  0.3032844830742789  0.1677166585579002  0.5083103050361828   F   F   F
  0.8035693142321421  0.1647513490380916  0.9887737732822757   F   F   F
  0.6981479097965391  0.6724175252487470  0.4911933723841457   F   F   F
  0.8035844757786066  0.3352873579909357  0.9888347216053290   F   F   F
  0.6980594204870201  0.8279192271636902  0.4917521452159406   F   F   F
  0.0914144552651663  0.7500788861801979  0.0256571020734881   F   F   F
  0.4062871099376011  0.2500391366212682  0.5245287152293869   F   F   F
  0.9046954615708955  0.2500015749705256  0.9753038549376356   F   F   F
  0.5923993902478912  0.7509119853539659  0.4632830694103660   F   F   F
  0.0795156602241320  0.8692887569468724  0.9378252083098531   F   F   F
  0.4189671721040042  0.3699166380907783  0.4392641898608218   F   F   F
  0.0796214585647306  0.6311044809307944  0.9378166265291554   F   F   F
  0.4189081927681997  0.1301845818559855  0.4391765511733681   F   F   F
  0.9190471654025458  0.1316629167875263  0.0636675119878376   F   F   F
  0.5837588808389498  0.6326297463613457  0.5602371291855448   F   F   F
  0.9190744708624550  0.3683162686192318  0.0636659894040790   F   F   F
  0.5841342421571625  0.8680330142545145  0.5609063432694157   F   F   F
  0.1256962680886389  0.8399253005778178  0.7545679181541942   F   F   F
  0.3775090307349984  0.3422595703715032  0.2525460708608520   F   F   F
  0.1255825785586993  0.6597077190566338  0.7542346840142571   F   F   F
  0.3775501291647103  0.1578650318510455  0.2523914044169686   F   F   F
  0.8773986813116466  0.1607968648939107  0.2499888987527186   F   F   F
  0.6244967646090700  0.6589718992749809  0.7492988759753487   F   F   F
  0.8774008019892108  0.3392078357017354  0.2499987054313522   F   F   F
  0.6241620794514731  0.8410926170214594  0.7489096319780089   F   F   F
  0.2007699444412623  0.7500388819601156  0.6643888283435970   F   F   F
  0.3013062695967506  0.2500436448832914  0.1692969184086550   F   F   F
  0.7993235032576536  0.2500029948934070  0.3357900664094871   F   F   F
  0.7013376860427840  0.7500419723915783  0.8317580429617877   F   F   F
  0.4240585722701269  0.0707835756468924  0.6891479851815348   F   F   F
  0.0756066311266679  0.5696193694099634  0.1901226323662542   F   F   F
  0.4240321044441941  0.4292400893358774  0.6891768733863941   F   F   F
  0.0756382066656016  0.9303142021676365  0.1899642109282169   F   F   F
  0.5763673452389213  0.9309998153091286  0.3073874350193080   F   F   F
  0.9249942301351979  0.4295863844357370  0.8095949109290004   F   F   F
  0.5763289566323309  0.5702470875526942  0.3077393553440118   F   F   F
  0.9249991680789691  0.0704159115462630  0.8095898215283768   F   F   F
  0.3221296738111761  0.0326833431344653  0.8439692394705531   F   F   F
  0.1778241849028319  0.5317681282149778  0.3443430891086479   F   F   F
  0.3221300852550044  0.4673753729213459  0.8440033004984642   F   F   F
  0.1778367833163728  0.9682357385251592  0.3444265298533935   F   F   F
  0.6785210411052987  0.9680940701190366  0.1554599630579148   F   F   F
  0.8221331513337589  0.4673630876243848  0.6561068865330313   F   F   F
  0.6785280157570099  0.5316221022572734  0.1557844206176995   F   F   F
  0.8221389742717520  0.0326470794569929  0.6560938397509588   F   F   F
  0.2766674781206717  0.0515632293207133  0.0616508586056668   F   F   F
  0.2222310690581395  0.5498159656293140  0.5623822814412094   F   F   F
  0.2767106032086417  0.4485397980961423  0.0617181850963462   F   F   F
  0.2224575929163706  0.9501377104952837  0.5620453830061152   F   F   F
  0.7243524570651090  0.9483899155693010  0.9381574287031853   F   F   F
  0.7777910574464073  0.4502877302419250  0.4371712941896746   F   F   F
  0.7243664841072999  0.5517421601329104  0.9381286693088740   F   F   F
  0.7778351763428191  0.0497142748103485  0.4371833541173515   F   F   F
  0.1216863357306792  0.0542439801395176  0.0487591620511836   F   F   F
  0.3770732668859011  0.5531220857535573  0.5491252302910823   F   F   F
  0.1217231472702238  0.4458161326332615  0.0488642005116589   F   F   F
  0.3765026466381229  0.9468091373173095  0.5488062369580575   F   F   F
  0.8796261168907691  0.9461325272071335  0.9501210771954476   F   F   F
  0.6225363906934049  0.4470983089445397  0.4505667001174842   F   F   F
  0.8796626498068960  0.5539408025387402  0.9500087037173515   F   F   F
  0.6225970889912773  0.0529152588231341  0.4506676145070685   F   F   F
  0.0731291652980772  0.0397280307930359  0.8250492800862688   F   F   F
  0.4275443016434011  0.5410121221634370  0.3244594978085544   F   F   F
  0.0730724893376760  0.4603591275026560  0.8251317804183813   F   F   F
  0.4283336549308814  0.9590375328072085  0.3260839031342826   F   F   F
  0.9271320284998410  0.9605732676633849  0.1743537462629945   F   F   F
  0.5711363523631903  0.4628214796971122  0.6742238819746333   F   F   F
  0.9271187310459936  0.5394336174907082  0.1743387169526613   F   F   F
  0.5711646253096418  0.0372123300978586  0.6743009740405128   F   F   F
  0.2016606151922034  0.0731780382261462  0.7145554859468604   F   F   F
  0.2981885636619168  0.5715025444993742  0.2151220283607600   F   F   F
  0.2016507193109476  0.4269281662220550  0.7146021156340225   F   F   F
  0.2980849470180118  0.9283849734792042  0.2146318634932243   F   F   F
  0.7989761109359321  0.9268026055384908  0.2852088137398781   F   F   F
  0.7012303948287339  0.4296027688174959  0.7852342345565191   F   F   F
  0.7989694640147036  0.5731963721488356  0.2852091614225927   F   F   F
  0.7012843355630878  0.0705640024606708  0.7851994744181852   F   F   F
  0.4217359855380494  0.8279925545634796  0.6888519880810904   F   F   F
  0.0758788959604288  0.3283070585508412  0.1878667151190214   F   F   F
  0.4221471576094729  0.6720119001262717  0.6898796485280485   F   F   F
  0.0758654193335957  0.1717216243068904  0.1878045398691199   F   F   F
  0.5775215717806148  0.1718077218308451  0.3153713201385600   F   F   F
  0.9251531518168790  0.6718306276407446  0.8107626175247660   F   F   F
  0.5775025096244590  0.3281717354459772  0.3153673958464509   F   F   F
  0.9251621629395288  0.8283757996128145  0.8109222429929233   F   F   F
  0.3172723871114869  0.8748113627476855  0.8383671640934836   F   F   F
  0.1828528148068074  0.3745222082372734  0.3347541130683211   F   F   F
  0.3179610902422354  0.6255539689526373  0.8381507232223768   F   F   F
  0.1828801155478885  0.1255219244761037  0.3347411946177914   F   F   F
  0.6836652384185626  0.1262601686034159  0.1653907579724532   F   F   F
  0.8178486307799204  0.6248216735768608  0.6649629659280833   F   F   F
  0.6836504306359927  0.3737583667186968  0.1654353811039897   F   F   F
  0.8178522808032582  0.8751892406335458  0.6649623978253061   F   F   F
  0.2718074435064537  0.8274143104801510  0.0417356432839355   F   F   F
  0.2261443743138400  0.3275969317296088  0.5389831885180527   F   F   F
  0.2715749863018502  0.6729009357785358  0.0407826819190333   F   F   F
  0.2261426468382552  0.1725586715516627  0.5389906405368166   F   F   F
  0.7263890467676219  0.1718938534361314  0.9589531489063745   F   F   F
  0.7753812132934499  0.6731167486959322  0.4604835289771145   F   F   F
  0.7264084473280690  0.3282168205838545  0.9590037351413940   F   F   F
  0.7754067818177575  0.8268807645387355  0.4604974337649566   F   F   F
  0.1151960438058950  0.8282806187624132  0.0267409056838730   F   F   F
  0.3820134071125807  0.3279315837152481  0.5268972807119496   F   F   F
  0.1158084606087542  0.6722279600802281  0.0267792906148472   F   F   F
  0.3820224335284550  0.1721425188600563  0.5268922827265072   F   F   F
  0.8825017583109229  0.1716008886716622  0.9735837041484317   F   F   F
  0.6191664975244109  0.6720400554372432  0.4685246585339655   F   F   F
  0.8825046637598675  0.3284050090943396  0.9735892986267771   F   F   F
  0.6197102190856398  0.8283683484042967  0.4711766224426128   F   F   F
  0.0708142274283574  0.8809662810951053  0.8186071710188259   F   F   F
  0.4313796386280728  0.3817257265524674  0.3201480338932399   F   F   F
  0.0707523387128077  0.6192149811145242  0.8174785199086543   F   F   F
  0.4313445288811337  0.1183696062053201  0.3200794166744885   F   F   F
  0.9298820881379797  0.1192231772497294  0.1828380652990447   F   F   F
  0.5685904442417922  0.6222820866196486  0.6806382600606113   F   F   F
  0.9298779704907645  0.3807775899375301  0.1828334842037975   F   F   F
  0.5698253212029414  0.8780592513531076  0.6794854722273129   F   F   F
  0.1970641727781555  0.8272206541191665  0.7033433357795289   F   F   F
  0.3054107400279733  0.3279737945795560  0.2048060146959259   F   F   F
  0.1969985194782282  0.6725839509364064  0.7031501605697770   F   F   F
  0.3054100406985896  0.1721098879818186  0.2047647328787079   F   F   F
  0.8047219830494257  0.1727425953055430  0.2971895674775027   F   F   F
  0.6963049286335448  0.6722422908526369  0.7964584268199033   F   F   F
  0.8047213309910006  0.3272637652720576  0.2971897704100996   F   F   F
  0.6962916210407712  0.8278388218384620  0.7964494237635122   F   F   F
  0.4867299620868266  0.7616411404937367  0.3660995035692807   F   F   F
  0.3824559782953827  0.7560064404961722  0.2857092681224529   F   F   F
  0.3920926889509673  0.7507228859837340  0.4669627605381805   F   F   F
  0.4687876061653498  0.7545598318018492  0.2148782810107974   T   T   T
  0.4672447322027722  0.8001782339399739  0.1689087806305025   T   T   T
  0.4918188269524393  0.7163533380072238  0.1709449794604581   T   T   T
  0.4057647628628871  0.6884391773283625  0.2265499841869484   T   T   T
 
  0.00000000E+00  0.00000000E+00  0.00000000E+00
  0.00000000E+00  0.00000000E+00  0.00000000E+00
  0.00000000E+00  0.00000000E+00  0.00000000E+00
  0.00000000E+00  0.00000000E+00  0.00000000E+00
  0.00000000E+00  0.00000000E+00  0.00000000E+00
  0.00000000E+00  0.00000000E+00  0.00000000E+00
  0.00000000E+00  0.00000000E+00  0.00000000E+00
  0.00000000E+00  0.00000000E+00  0.00000000E+00
  0.00000000E+00  0.00000000E+00  0.00000000E+00
  0.00000000E+00  0.00000000E+00  0.00000000E+00
  0.00000000E+00  0.00000000E+00  0.00000000E+00
  0.00000000E+00  0.00000000E+00  0.00000000E+00
  0.00000000E+00  0.00000000E+00  0.00000000E+00
  0.00000000E+00  0.00000000E+00  0.00000000E+00
  0.00000000E+00  0.00000000E+00  0.00000000E+00
  0.00000000E+00  0.00000000E+00  0.00000000E+00
  0.00000000E+00  0.00000000E+00  0.00000000E+00
  0.00000000E+00  0.00000000E+00  0.00000000E+00
  0.00000000E+00  0.00000000E+00  0.00000000E+00
  0.00000000E+00  0.00000000E+00  0.00000000E+00
  0.00000000E+00  0.00000000E+00  0.00000000E+00
  0.00000000E+00  0.00000000E+00  0.00000000E+00
  0.00000000E+00  0.00000000E+00  0.00000000E+00
  0.00000000E+00  0.00000000E+00  0.00000000E+00
  0.00000000E+00  0.00000000E+00  0.00000000E+00
  0.00000000E+00  0.00000000E+00  0.00000000E+00
  0.00000000E+00  0.00000000E+00  0.00000000E+00
  0.00000000E+00  0.00000000E+00  0.00000000E+00
  0.00000000E+00  0.00000000E+00  0.00000000E+00
  0.00000000E+00  0.00000000E+00  0.00000000E+00
  0.00000000E+00  0.00000000E+00  0.00000000E+00
  0.00000000E+00  0.00000000E+00  0.00000000E+00
  0.00000000E+00  0.00000000E+00  0.00000000E+00
  0.00000000E+00  0.00000000E+00  0.00000000E+00
  0.00000000E+00  0.00000000E+00  0.00000000E+00
  0.00000000E+00  0.00000000E+00  0.00000000E+00
  0.00000000E+00  0.00000000E+00  0.00000000E+00
  0.00000000E+00  0.00000000E+00  0.00000000E+00
  0.00000000E+00  0.00000000E+00  0.00000000E+00
  0.00000000E+00  0.00000000E+00  0.00000000E+00
  0.00000000E+00  0.00000000E+00  0.00000000E+00
  0.00000000E+00  0.00000000E+00  0.00000000E+00
  0.00000000E+00  0.00000000E+00  0.00000000E+00
  0.00000000E+00  0.00000000E+00  0.00000000E+00
  0.00000000E+00  0.00000000E+00  0.00000000E+00
  0.00000000E+00  0.00000000E+00  0.00000000E+00
  0.00000000E+00  0.00000000E+00  0.00000000E+00
  0.00000000E+00  0.00000000E+00  0.00000000E+00
  0.00000000E+00  0.00000000E+00  0.00000000E+00
  0.00000000E+00  0.00000000E+00  0.00000000E+00
  0.00000000E+00  0.00000000E+00  0.00000000E+00
  0.00000000E+00  0.00000000E+00  0.00000000E+00
  0.00000000E+00  0.00000000E+00  0.00000000E+00
  0.00000000E+00  0.00000000E+00  0.00000000E+00
  0.00000000E+00  0.00000000E+00  0.00000000E+00
  0.00000000E+00  0.00000000E+00  0.00000000E+00
  0.00000000E+00  0.00000000E+00  0.00000000E+00
  0.00000000E+00  0.00000000E+00  0.00000000E+00
  0.00000000E+00  0.00000000E+00  0.00000000E+00
  0.00000000E+00  0.00000000E+00  0.00000000E+00
  0.00000000E+00  0.00000000E+00  0.00000000E+00
  0.00000000E+00  0.00000000E+00  0.00000000E+00
  0.00000000E+00  0.00000000E+00  0.00000000E+00
  0.00000000E+00  0.00000000E+00  0.00000000E+00
  0.00000000E+00  0.00000000E+00  0.00000000E+00
  0.00000000E+00  0.00000000E+00  0.00000000E+00
  0.00000000E+00  0.00000000E+00  0.00000000E+00
  0.00000000E+00  0.00000000E+00  0.00000000E+00
  0.00000000E+00  0.00000000E+00  0.00000000E+00
  0.00000000E+00  0.00000000E+00  0.00000000E+00
  0.00000000E+00  0.00000000E+00  0.00000000E+00
  0.00000000E+00  0.00000000E+00  0.00000000E+00
  0.00000000E+00  0.00000000E+00  0.00000000E+00
  0.00000000E+00  0.00000000E+00  0.00000000E+00
  0.00000000E+00  0.00000000E+00  0.00000000E+00
  0.00000000E+00  0.00000000E+00  0.00000000E+00
  0.00000000E+00  0.00000000E+00  0.00000000E+00
  0.00000000E+00  0.00000000E+00  0.00000000E+00
  0.00000000E+00  0.00000000E+00  0.00000000E+00
  0.00000000E+00  0.00000000E+00  0.00000000E+00
  0.00000000E+00  0.00000000E+00  0.00000000E+00
  0.00000000E+00  0.00000000E+00  0.00000000E+00
  0.00000000E+00  0.00000000E+00  0.00000000E+00
  0.00000000E+00  0.00000000E+00  0.00000000E+00
  0.00000000E+00  0.00000000E+00  0.00000000E+00
  0.00000000E+00  0.00000000E+00  0.00000000E+00
  0.00000000E+00  0.00000000E+00  0.00000000E+00
  0.00000000E+00  0.00000000E+00  0.00000000E+00
  0.00000000E+00  0.00000000E+00  0.00000000E+00
  0.00000000E+00  0.00000000E+00  0.00000000E+00
  0.00000000E+00  0.00000000E+00  0.00000000E+00
  0.00000000E+00  0.00000000E+00  0.00000000E+00
  0.00000000E+00  0.00000000E+00  0.00000000E+00
  0.00000000E+00  0.00000000E+00  0.00000000E+00
  0.00000000E+00  0.00000000E+00  0.00000000E+00
  0.00000000E+00  0.00000000E+00  0.00000000E+00
  0.00000000E+00  0.00000000E+00  0.00000000E+00
  0.00000000E+00  0.00000000E+00  0.00000000E+00
  0.00000000E+00  0.00000000E+00  0.00000000E+00
  0.00000000E+00  0.00000000E+00  0.00000000E+00
  0.00000000E+00  0.00000000E+00  0.00000000E+00
  0.00000000E+00  0.00000000E+00  0.00000000E+00
  0.00000000E+00  0.00000000E+00  0.00000000E+00
  0.00000000E+00  0.00000000E+00  0.00000000E+00
  0.00000000E+00  0.00000000E+00  0.00000000E+00
  0.00000000E+00  0.00000000E+00  0.00000000E+00
  0.00000000E+00  0.00000000E+00  0.00000000E+00
  0.00000000E+00  0.00000000E+00  0.00000000E+00
  0.00000000E+00  0.00000000E+00  0.00000000E+00
  0.00000000E+00  0.00000000E+00  0.00000000E+00
  0.00000000E+00  0.00000000E+00  0.00000000E+00
  0.00000000E+00  0.00000000E+00  0.00000000E+00
  0.00000000E+00  0.00000000E+00  0.00000000E+00
  0.00000000E+00  0.00000000E+00  0.00000000E+00
  0.00000000E+00  0.00000000E+00  0.00000000E+00
  0.00000000E+00  0.00000000E+00  0.00000000E+00
  0.00000000E+00  0.00000000E+00  0.00000000E+00
  0.00000000E+00  0.00000000E+00  0.00000000E+00
  0.00000000E+00  0.00000000E+00  0.00000000E+00
  0.00000000E+00  0.00000000E+00  0.00000000E+00
  0.00000000E+00  0.00000000E+00  0.00000000E+00
  0.00000000E+00  0.00000000E+00  0.00000000E+00
  0.00000000E+00  0.00000000E+00  0.00000000E+00
  0.00000000E+00  0.00000000E+00  0.00000000E+00
  0.00000000E+00  0.00000000E+00  0.00000000E+00
  0.00000000E+00  0.00000000E+00  0.00000000E+00
  0.00000000E+00  0.00000000E+00  0.00000000E+00
  0.00000000E+00  0.00000000E+00  0.00000000E+00
  0.00000000E+00  0.00000000E+00  0.00000000E+00
  0.00000000E+00  0.00000000E+00  0.00000000E+00
  0.00000000E+00  0.00000000E+00  0.00000000E+00
  0.00000000E+00  0.00000000E+00  0.00000000E+00
  0.00000000E+00  0.00000000E+00  0.00000000E+00
  0.00000000E+00  0.00000000E+00  0.00000000E+00
  0.00000000E+00  0.00000000E+00  0.00000000E+00
  0.00000000E+00  0.00000000E+00  0.00000000E+00
  0.00000000E+00  0.00000000E+00  0.00000000E+00
  0.00000000E+00  0.00000000E+00  0.00000000E+00
  0.00000000E+00  0.00000000E+00  0.00000000E+00
  0.00000000E+00  0.00000000E+00  0.00000000E+00
  0.00000000E+00  0.00000000E+00  0.00000000E+00
  0.00000000E+00  0.00000000E+00  0.00000000E+00
  0.00000000E+00  0.00000000E+00  0.00000000E+00
  0.00000000E+00  0.00000000E+00  0.00000000E+00
  0.00000000E+00  0.00000000E+00  0.00000000E+00
  0.00000000E+00  0.00000000E+00  0.00000000E+00
  0.00000000E+00  0.00000000E+00  0.00000000E+00
  0.00000000E+00  0.00000000E+00  0.00000000E+00
  0.00000000E+00  0.00000000E+00  0.00000000E+00
  0.00000000E+00  0.00000000E+00  0.00000000E+00
  0.00000000E+00  0.00000000E+00  0.00000000E+00
  0.00000000E+00  0.00000000E+00  0.00000000E+00
  0.00000000E+00  0.00000000E+00  0.00000000E+00
  0.00000000E+00  0.00000000E+00  0.00000000E+00
  0.00000000E+00  0.00000000E+00  0.00000000E+00
  0.00000000E+00  0.00000000E+00  0.00000000E+00
  0.00000000E+00  0.00000000E+00  0.00000000E+00
  0.00000000E+00  0.00000000E+00  0.00000000E+00
  0.00000000E+00  0.00000000E+00  0.00000000E+00
  0.00000000E+00  0.00000000E+00  0.00000000E+00
  0.00000000E+00  0.00000000E+00  0.00000000E+00
  0.00000000E+00  0.00000000E+00  0.00000000E+00
  0.00000000E+00  0.00000000E+00  0.00000000E+00
  0.00000000E+00  0.00000000E+00  0.00000000E+00
  0.00000000E+00  0.00000000E+00  0.00000000E+00