O  Si Ru C  H                           
   1.00000000000000     
    20.3096463179830877    0.0000000000000000    0.0000000000000000
     0.0000000000000000   19.8625212307842212    0.0000000000000000
     0.0000000000000000    0.0000000000000000   13.3711533343531652
   O    Si   Ru   C    H 
   192    96     2     2     4
Selective dynamics
Direct
  0.5057133820339814  0.0714044767862632  0.7062623077138994   F   F   F
  0.9982384195545890  0.5673610181021616  0.2110911530062438   F   F   F
  0.5051416731580858  0.4284720493370173  0.7070938512322940   F   F   F
  0.9979911444973482  0.9343584567214123  0.2112996057654968   F   F   F
  0.4964126266634707  0.9273029561996893  0.2921045851865998   F   F   F
  0.0046353272045465  0.4291905814307171  0.7901903118366391   F   F   F
  0.4960768730290255  0.5725772867109384  0.2913265513353664   F   F   F
  0.0045272415683115  0.0701319600688421  0.7879667021989150   F   F   F
  0.3913492674618624  0.0625782230160326  0.7996602032735822   F   F   F
  0.1133109058668609  0.5687058433744880  0.3008549571170178   F   F   F
  0.3915876821762225  0.4375048995704773  0.8009143744340079   F   F   F
  0.1130643518413166  0.9318545687604711  0.3006047751597407   F   F   F
  0.6109908066765186  0.9339280265060950  0.2010563792789171   F   F   F
  0.8902262642190877  0.4345952704773310  0.6983451344933727   F   F   F
  0.6104392458162948  0.5667005558495006  0.1998393844762489   F   F   F
  0.8901001892347438  0.0659998676150195  0.6986785810084086   F   F   F
  0.4013381550515760  0.1378166386604676  0.6382007650968262   F   F   F
  0.0951328431839826  0.6394785466810404  0.1356039819210721   F   F   F
  0.4014227957373606  0.3627345355310538  0.6374144053902597   F   F   F
  0.0940576996277471  0.8603016901167138  0.1351810201912187   F   F   F
  0.5966125449841471  0.8597817592589081  0.3635561001927314   F   F   F
  0.9023484896401470  0.3633776446194261  0.8639582682662734   F   F   F
  0.5965183932071128  0.6403929632790479  0.3633274060150455   F   F   F
  0.9031050093132293  0.1366229385778297  0.8638805092846127   F   F   F
  0.4066195844537006  0.0042070967491696  0.6209714558751003   F   F   F
  0.0999677682345776  0.5052972711742854  0.1249382481865240   F   F   F
  0.4075701717391382  0.4964994142391959  0.6228915232583887   F   F   F
  0.1005323905993905  0.9935536575213106  0.1233534284281603   F   F   F
  0.5950152098225701  0.9939205644897626  0.3761569252183961   F   F   F
  0.9056319715863594  0.4978260118112345  0.8713637217107504   F   F   F
  0.5952001381678969  0.5059241161625039  0.3763247723829366   F   F   F
  0.9059001316948212  0.0022448000967898  0.8712816001251653   F   F   F
  0.3233439951080115  0.0394677586288807  0.9655421854576929   F   F   F
  0.1756501307196743  0.5377888193729703  0.4668917154625163   F   F   F
  0.3242491417968552  0.4611846493981062  0.9646039019845389   F   F   F
  0.1755603442693641  0.9610244425678118  0.4669914013149281   F   F   F
  0.6793332808292902  0.9578432840273479  0.0368655934737063   F   F   F
  0.8242088660570630  0.4630707659292526  0.5327667559139684   F   F   F
  0.6792977070078834  0.5425349320033845  0.0355526538385789   F   F   F
  0.8242251068177424  0.0371284539123167  0.5328555168194882   F   F   F
  0.3175488404757374  0.9527311309125253  0.8096898575540123   F   F   F
  0.1779789540115715  0.4536136903183490  0.3084361578808270   F   F   F
  0.3177539525807731  0.5465538631079951  0.8090325423446103   F   F   F
  0.1790963397942988  0.0453635256934817  0.3089567711805401   F   F   F
  0.6839958493336553  0.0424772313815041  0.1910371462312597   F   F   F
  0.8219196741443469  0.5472046874772261  0.6903681789273506   F   F   F
  0.6843241776909395  0.4568271500924652  0.1905156884185715   F   F   F
  0.8219128797806405  0.9519215232837155  0.6904973568432027   F   F   F
  0.2607397984379887  0.0716591063173837  0.7991392806310174   F   F   F
  0.2451424037853869  0.5676345566211509  0.3073617173401786   F   F   F
  0.2612304071970328  0.4279334419403185  0.8000055527857697   F   F   F
  0.2448417208922677  0.9307115025915422  0.3039283894075027   F   F   F
  0.7407664950203738  0.9251587373623451  0.2037496512257562   F   F   F
  0.7584013819209403  0.4317679766970386  0.6980324146062529   F   F   F
  0.7405013964966045  0.5756588000497871  0.2030106257397435   F   F   F
  0.7581566889829787  0.0684310852819863  0.6973744340218246   F   F   F
  0.2923964114044111  0.1229496051589081  0.1078657049304681   F   F   F
  0.2080036292031764  0.6248948761194981  0.6095889680534938   F   F   F
  0.2927796550737796  0.3737436209790133  0.1065485273563525   F   F   F
  0.2082648748261136  0.8754840601587759  0.6101627140116577   F   F   F
  0.7128388970831807  0.8755616593474969  0.8907100778053803   F   F   F
  0.7942974477700488  0.3769462411662730  0.3895879461881648   F   F   F
  0.7128093475690704  0.6249307390070555  0.8902942231476700   F   F   F
  0.7943351029881001  0.1237411244987499  0.3900319498933627   F   F   F
  0.1997471102463351  0.0485959060629213  0.0214672391201773   F   F   F
  0.2993060333512645  0.5416853838202016  0.5333066786500993   F   F   F
  0.2008069519142879  0.4529589613555132  0.0248405010867216   F   F   F
  0.2994814644367736  0.9582715767280803  0.5332368538506174   F   F   F
  0.8028141137034694  0.9557841526494997  0.9731455546237413   F   F   F
  0.7014245681164866  0.4578542505834804  0.4664362493820278   F   F   F
  0.8031386738701727  0.5443380143016228  0.9730500948911072   F   F   F
  0.7012004546583412  0.0430848253907925  0.4658006304841464   F   F   F
  0.2874007502389517  0.9916881623773079  0.1431395838203429   F   F   F
  0.2033280025254314  0.4933282258565086  0.6493791865469589   F   F   F
  0.2910207053540361  0.5035430221691470  0.1470793495305216   F   F   F
  0.2032273116496981  0.0064241058147232  0.6492503024801906   F   F   F
  0.7082335103531960  0.0054099766460851  0.8570362279682229   F   F   F
  0.7973071191686145  0.5075406457822282  0.3527376376565741   F   F   F
  0.7083145270798212  0.4945645927667428  0.8572410212684929   F   F   F
  0.7973837483211881  0.9928033749811576  0.3524814612176286   F   F   F
  0.1075917648768723  0.1267879731583434  0.1011340534761374   F   F   F
  0.3892425718047292  0.6277858201732514  0.6025264579876293   F   F   F
  0.1082321064203811  0.3728801796580257  0.1020316107651595   F   F   F
  0.3896400970607132  0.8733533656768913  0.6039266352847861   F   F   F
  0.8938047515225307  0.8719896021355211  0.9071569801813126   F   F   F
  0.6105311602223438  0.3740737442930069  0.3982502119047382   F   F   F
  0.8941165312078212  0.6285183960926162  0.9062270437351927   F   F   F
  0.6101081317986115  0.1261172482658139  0.3984227362945134   F   F   F
  0.0780065624215140  0.0479488244671273  0.9470211382403875   F   F   F
  0.4160720702349181  0.5502466943020181  0.4450091890777657   F   F   F
  0.0798652930007364  0.4519890184603241  0.9488751243102058   F   F   F
  0.4156156714074513  0.9494332564493462  0.4426135538533558   F   F   F
  0.9233359238130703  0.9559332232296995  0.0502266032827734   F   F   F
  0.5847301622627867  0.4511485807495532  0.5533679625522296   F   F   F
  0.9234312504519266  0.5444147591647734  0.0502330509548941   F   F   F
  0.5847466526574578  0.0496399217937480  0.5529910007163323   F   F   F
  0.1315493734985935  0.0809744041634985  0.7728136499707929   F   F   F
  0.3708793248042213  0.5761840807206084  0.2597552113202326   F   F   F
  0.1324184532421313  0.4192672959454740  0.7730093771330857   F   F   F
  0.3707539004023630  0.9277593057146376  0.2585022476607577   F   F   F
  0.8706981374160776  0.9213424097270178  0.2257489540494362   F   F   F
  0.6319704898169647  0.4236755088451503  0.7357641002574056   F   F   F
  0.8706986877613119  0.5782474263937516  0.2243926976148387   F   F   F
  0.6308038911394647  0.0758890125582639  0.7349013687199530   F   F   F
  0.0800831135424076  0.9614994772870205  0.7954181232969333   F   F   F
  0.4272051344459129  0.4590356215456382  0.2987779523176499   F   F   F
  0.0794080478718868  0.5393550814820287  0.7963585998493414   F   F   F
  0.4294193812472571  0.0400738387125088  0.3004010789913352   F   F   F
  0.9216416901268687  0.0432323428030159  0.2047599816595564   F   F   F
  0.5750943383465383  0.5421585684024066  0.6999905455548046   F   F   F
  0.9229634449571975  0.4576070239679595  0.2044329056266108   F   F   F
  0.5747053272610998  0.9590376913544532  0.6989930567751088   F   F   F
  0.2130226644679567  0.1402801847130988  0.6500348337865276   F   F   F
  0.2816428351235345  0.6371422265277147  0.1499926859245733   F   F   F
  0.2128432405541290  0.3594793434199985  0.6492096760674073   F   F   F
  0.2857536529816755  0.8586889469560006  0.1514407741678880   F   F   F
  0.7963343883435741  0.8571450717180511  0.3509874672597064   F   F   F
  0.7154817140283569  0.3602677572703499  0.8486371220057620   F   F   F
  0.7966058023906868  0.6433011085076288  0.3511505965184227   F   F   F
  0.7152933057478066  0.1399875389782750  0.8488011431498563   F   F   F
  0.4988305313397206  0.8501671294770077  0.7125893445834208   F   F   F
  0.0018190546718202  0.3509419007667489  0.2141164500488628   F   F   F
  0.4986954313193621  0.6492062261121845  0.7119177095934930   F   F   F
  0.0012741308697528  0.1482909066916562  0.2138712862905123   F   F   F
  0.5022120378995396  0.1531830047931138  0.2891989928209924   F   F   F
  0.9986403321199120  0.6435571253854917  0.7832340550406514   F   F   F
  0.5012209470134295  0.3496968980411523  0.2900713927030125   F   F   F
  0.9984105914965795  0.8566015357468402  0.7843850899202280   F   F   F
  0.3825202715277598  0.8379949846549906  0.7968463850254395   F   F   F
  0.1178604267623342  0.3362358433131618  0.2926889723011143   F   F   F
  0.3837755255049160  0.6616555035770375  0.7951539251352457   F   F   F
  0.1176463713936897  0.1626267419245551  0.2921920526003916   F   F   F
  0.6164773379790134  0.1586997557600469  0.2028290227354645   F   F   F
  0.8808009267718262  0.6668452227193384  0.7148263487043778   F   F   F
  0.6166611315974961  0.3422611139250051  0.2037346440759435   F   F   F
  0.8807291551451399  0.8343803481775680  0.7140499770060345   F   F   F
  0.4191047158919616  0.7506380342795040  0.6571430405553969   F   F   F
  0.0776968669183873  0.2492373251770488  0.1539966697051227   F   F   F
  0.5839496655402101  0.2506321415497865  0.3408632713227391   F   F   F
  0.9306315824440716  0.7498831381315370  0.8502225459755763   F   F   F
  0.3150890729386759  0.8656998337764961  0.9601986488360623   F   F   F
  0.1836661286166574  0.3681109899491588  0.4577140311856596   F   F   F
  0.3147058396270239  0.6338618398191258  0.9596933066208564   F   F   F
  0.1836032284607256  0.1314120708961894  0.4571525165097015   F   F   F
  0.6849344103782542  0.1311972601417182  0.0411885677063637   F   F   F
  0.8231532963216566  0.6375164072024759  0.5432946069354330   F   F   F
  0.6851253484484801  0.3689979238374761  0.0408982477278315   F   F   F
  0.8235097003977998  0.8631018028821558  0.5435420156887858   F   F   F
  0.2531214639863535  0.8389079709751002  0.7908809191670798   F   F   F
  0.2481574466643011  0.3422892332238661  0.2886227195905775   F   F   F
  0.2530165775338133  0.6611449013785844  0.7883061760680192   F   F   F
  0.2471968694469027  0.1577281902785614  0.2910810539561979   F   F   F
  0.7471624329839486  0.1597803961386930  0.2117450819241284   F   F   F
  0.7498627474120596  0.6589462699300341  0.7054237733398736   F   F   F
  0.7473157667737738  0.3407420314466236  0.2117292911417223   F   F   F
  0.7510179841134246  0.8412767957239353  0.7051852647098897   F   F   F
  0.2915957912315648  0.7481195134347303  0.0474954755590886   F   F   F
  0.2037477007719843  0.2502551919090479  0.5414480994999025   F   F   F
  0.7037818829579265  0.2499550684733478  0.9567919365032225   F   F   F
  0.7800102666326652  0.7510063659253134  0.4614507125589569   F   F   F
  0.1942479129372927  0.8360290736042444  0.0126058477515372   F   F   F
  0.3032673351601929  0.3342004345094125  0.5121825183061830   F   F   F
  0.1943987248926717  0.6650848272606851  0.0091403491226174   F   F   F
  0.3029556794025012  0.1661021471801760  0.5113786698182494   F   F   F
  0.8062546685897161  0.1675336056038930  0.9882992106132917   F   F   F
  0.7007329349411222  0.6454411096407071  0.4844856243114961   F   F   F
  0.8054644706856919  0.3326481259068998  0.9890358009355324   F   F   F
  0.6991033290214261  0.8549770714723977  0.4858231297453770   F   F   F
  0.0927961362949645  0.7507975322256470  0.0257876531102212   F   F   F
  0.4055945001611576  0.2507605365467995  0.5322539097672134   F   F   F
  0.9073509621492803  0.2497293753029055  0.9664812892103356   F   F   F
  0.6183883976120370  0.7502655418667672  0.4714360720236215   F   F   F
  0.0783392018112039  0.8695698703868118  0.9397548083454694   F   F   F
  0.4199054425341728  0.3681447937004449  0.4415116767384859   F   F   F
  0.0769063064684588  0.6310380716832640  0.9385828987417142   F   F   F
  0.4208192407514915  0.1326662751169110  0.4429369850638167   F   F   F
  0.9208281136900069  0.1333576420267804  0.0600431643331589   F   F   F
  0.5806427482863867  0.6366388855949765  0.5622032763698286   F   F   F
  0.9211804756428208  0.3673936476506512  0.0597198221766462   F   F   F
  0.5803410040726718  0.8627669734330539  0.5622004006678338   F   F   F
  0.1252299437494031  0.8388179665050117  0.7559669355164615   F   F   F
  0.3755632738388641  0.3406170125924035  0.2554481425301773   F   F   F
  0.1248745476877104  0.6608128925782992  0.7556711224361123   F   F   F
  0.3750105584802839  0.1591379782446722  0.2565091495726151   F   F   F
  0.8748973137679457  0.1640237520129872  0.2421605779578826   F   F   F
  0.6247630716890029  0.6603697893532683  0.7493592182143161   F   F   F
  0.8744424540594125  0.3369390867856126  0.2429976579549233   F   F   F
  0.6243707256247291  0.8400570623651546  0.7483043459118548   F   F   F
  0.2003124151292681  0.7496903476450072  0.6645332058935765   F   F   F
  0.2999627711214501  0.2500582877141184  0.1690548590050014   F   F   F
  0.7970238537651042  0.2499209783775527  0.3352057264088799   F   F   F
  0.7030779350800245  0.7498857661844909  0.8310217450003989   F   F   F
  0.4264844125645482  0.0696977548306208  0.6913212089698035   F   F   F
  0.0761779975183146  0.5701793958043666  0.1906948106692283   F   F   F
  0.4266530894854057  0.4307142945457514  0.6909291893720280   F   F   F
  0.0762206894742050  0.9295464722714257  0.1913072298382019   F   F   F
  0.5747846522937223  0.9291983320273758  0.3083364742915649   F   F   F
  0.9254997786068344  0.4316818885738982  0.8061916583042716   F   F   F
  0.5759796321611717  0.5705752073929489  0.3090044385619777   F   F   F
  0.9251516626190508  0.0688826875591246  0.8078467473368818   F   F   F
  0.3239242269522364  0.0317814481022580  0.8450341015378697   F   F   F
  0.1787946622318302  0.5319720742211871  0.3459003666536731   F   F   F
  0.3235524171538557  0.4684571626789591  0.8448285831716262   F   F   F
  0.1794231581037025  0.9672699756053973  0.3451364444291372   F   F   F
  0.6787610450322106  0.9651196344788318  0.1554653210815218   F   F   F
  0.8240971273958380  0.4694356568787654  0.6546858277873326   F   F   F
  0.6793294293569403  0.5349761862472064  0.1565601525800062   F   F   F
  0.8228119813956525  0.0314455196540706  0.6544672162243543   F   F   F
  0.2765131298649877  0.0512778440166954  0.0606105302544862   F   F   F
  0.2221887339381752  0.5495770363582437  0.5658930904219659   F   F   F
  0.2767432129249059  0.4472898199704076  0.0613773234172683   F   F   F
  0.2225130948173941  0.9501079800649066  0.5638486382351786   F   F   F
  0.7261404778114056  0.9488113583533675  0.9388226669418600   F   F   F
  0.7790105711529236  0.4512053758994057  0.4354827244144985   F   F   F
  0.7263201411281912  0.5524420052764896  0.9385424934613837   F   F   F
  0.7783190586939384  0.0495522041551979  0.4343177725873275   F   F   F
  0.1226107377528578  0.0555324904095187  0.0486615350531352   F   F   F
  0.3772195281901034  0.5536250848138238  0.5496089107793480   F   F   F
  0.1219350338471372  0.4451793501368186  0.0498538506327293   F   F   F
  0.3779146789925960  0.9466743330526555  0.5490978992399818   F   F   F
  0.8801532811296866  0.9470168154083964  0.9509024815862688   F   F   F
  0.6233010510467878  0.4465522837560698  0.4491677513324817   F   F   F
  0.8811870757108053  0.5532751486371339  0.9502273001308339   F   F   F
  0.6225572669898582  0.0532982008083351  0.4484589941393011   F   F   F
  0.0734180660369503  0.0396701711408198  0.8264896123925283   F   F   F
  0.4266277239001539  0.5390982656303365  0.3245596920177150   F   F   F
  0.0738482514138141  0.4601919031319710  0.8283979285472185   F   F   F
  0.4271167997574850  0.9611236353377492  0.3255561419193072   F   F   F
  0.9273457526353042  0.9647188747537996  0.1720522728837111   F   F   F
  0.5749145113793617  0.4617188564921690  0.6714916900969357   F   F   F
  0.9284594776151707  0.5360809129754145  0.1713555726088529   F   F   F
  0.5744224026580369  0.0384547591959219  0.6728588519880532   F   F   F
  0.2032378538429356  0.0737136772047151  0.7151527964682600   F   F   F
  0.2973956589854154  0.5716685480668033  0.2143872274545018   F   F   F
  0.2024985722873467  0.4260193602733509  0.7158893969852187   F   F   F
  0.2965922802484116  0.9297335105830271  0.2138059078911994   F   F   F
  0.8005287082402859  0.9261078096437529  0.2835656918695406   F   F   F
  0.7035419167092698  0.4283275114163487  0.7853577032218126   F   F   F
  0.8009399998495468  0.5754845698463100  0.2837247248597663   F   F   F
  0.7027452205932860  0.0713133630240321  0.7864156855274658   F   F   F
  0.4229240947249551  0.8275183954612473  0.6903647436295728   F   F   F
  0.0762512239872422  0.3278016544675566  0.1900186386442826   F   F   F
  0.4229344953793017  0.6713098963358206  0.6929157332061138   F   F   F
  0.0754627982297933  0.1721820107453311  0.1904224348079069   F   F   F
  0.5780282496716325  0.1722783319206940  0.3096028845714116   F   F   F
  0.9253879851336109  0.6716329746010885  0.8142436933168966   F   F   F
  0.5778584318680515  0.3297750607167416  0.3091533495241165   F   F   F
  0.9262613667618353  0.8283776221014421  0.8149845783663068   F   F   F
  0.3173724491320584  0.8741715691537948  0.8388101895550193   F   F   F
  0.1822534126889721  0.3747187939312226  0.3365311792817423   F   F   F
  0.3165733130014985  0.6250492749475853  0.8391987257051881   F   F   F
  0.1819508426107888  0.1247622999191549  0.3366553958459519   F   F   F
  0.6827825160673200  0.1239547089553739  0.1629359927553580   F   F   F
  0.8183347674821349  0.6270200180902776  0.6640995670521690   F   F   F
  0.6833320567711283  0.3773217228816037  0.1622659683148200   F   F   F
  0.8192049145719551  0.8728405742832663  0.6655435300884562   F   F   F
  0.2720014563967226  0.8275515271428020  0.0455248627291880   F   F   F
  0.2270330778220071  0.3278231829537432  0.5400945903095860   F   F   F
  0.2708911399990086  0.6723783091086659  0.0412489495971968   F   F   F
  0.2271983708867324  0.1728906504117589  0.5395183535735697   F   F   F
  0.7277169557612169  0.1723067398129672  0.9577341110677011   F   F   F
  0.7750301346026518  0.6680905988126895  0.4596504335698199   F   F   F
  0.7278360380397686  0.3281612527999158  0.9591598864476154   F   F   F
  0.7741163437089966  0.8301421571094281  0.4605801566159897   F   F   F
  0.1159666589625417  0.8279525993108976  0.0274251584231706   F   F   F
  0.3827261827301882  0.3282827747080219  0.5296360420865085   F   F   F
  0.1160679337857289  0.6721961435537267  0.0266419655897465   F   F   F
  0.3828645071659338  0.1731721026908843  0.5311737923443829   F   F   F
  0.8843319542549963  0.1722163974974649  0.9693997698045180   F   F   F
  0.6239202720096415  0.6685255961927083  0.4709766614793196   F   F   F
  0.8839206329168476  0.3280082152860118  0.9694827443326162   F   F   F
  0.6240405040064303  0.8308273908869879  0.4712825839407344   F   F   F
  0.0709181807220531  0.8805803996150487  0.8205872806816359   F   F   F
  0.4303554119363113  0.3789063693772619  0.3214139466134043   F   F   F
  0.0709968894937631  0.6186993507639471  0.8199024660161456   F   F   F
  0.4306288151664006  0.1208486869888716  0.3229964797750213   F   F   F
  0.9293564399644225  0.1229816395798125  0.1796773755011429   F   F   F
  0.5716129121418589  0.6210983537117940  0.6797633249386124   F   F   F
  0.9294912424516824  0.3780125741937397  0.1797350617973166   F   F   F
  0.5712909212184130  0.8784923946131755  0.6796123556869915   F   F   F
  0.1958025210600667  0.8263284483505515  0.7048028941952893   F   F   F
  0.3046406026359492  0.3269963394162332  0.2054652892238735   F   F   F
  0.1965324975817282  0.6723862642338361  0.7054306885126564   F   F   F
  0.3038802899153552  0.1728988069424204  0.2056561224864595   F   F   F
  0.8036780716860292  0.1741419473284154  0.2951213644559090   F   F   F
  0.6976483494757417  0.6726219677079186  0.7946427733720469   F   F   F
  0.8032273096305573  0.3275253238556814  0.2944366622670955   F   F   F
  0.6973741176407486  0.8269763527014149  0.7959567542698025   F   F   F
  0.3454101685015374  0.7697033153006103  0.2758975850166792   F   F   F
  0.3610525717198456  0.7416841075917517  0.4396027721136377   F   F   F
  0.4517997713306414  0.7470048169169061  0.4115747911704304   T   T   T
  0.4342730519583640  0.7458401278550824  0.2513660562882976   T   T   T
  0.4818303544086575  0.7909809060044282  0.3927136220900849   T   T   T
  0.4811621022731956  0.7043914631644270  0.4404562667471907   T   T   T
  0.4687447798024991  0.7845569049008176  0.2241010100703846   T   T   T
  0.4516457071974926  0.6938153653937746  0.2403166089908410   T   T   T
 
  0.00000000E+00  0.00000000E+00  0.00000000E+00
  0.00000000E+00  0.00000000E+00  0.00000000E+00
  0.00000000E+00  0.00000000E+00  0.00000000E+00
  0.00000000E+00  0.00000000E+00  0.00000000E+00
  0.00000000E+00  0.00000000E+00  0.00000000E+00
  0.00000000E+00  0.00000000E+00  0.00000000E+00
  0.00000000E+00  0.00000000E+00  0.00000000E+00
  0.00000000E+00  0.00000000E+00  0.00000000E+00
  0.00000000E+00  0.00000000E+00  0.00000000E+00
  0.00000000E+00  0.00000000E+00  0.00000000E+00
  0.00000000E+00  0.00000000E+00  0.00000000E+00
  0.00000000E+00  0.00000000E+00  0.00000000E+00
  0.00000000E+00  0.00000000E+00  0.00000000E+00
  0.00000000E+00  0.00000000E+00  0.00000000E+00
  0.00000000E+00  0.00000000E+00  0.00000000E+00
  0.00000000E+00  0.00000000E+00  0.00000000E+00
  0.00000000E+00  0.00000000E+00  0.00000000E+00
  0.00000000E+00  0.00000000E+00  0.00000000E+00
  0.00000000E+00  0.00000000E+00  0.00000000E+00
  0.00000000E+00  0.00000000E+00  0.00000000E+00
  0.00000000E+00  0.00000000E+00  0.00000000E+00
  0.00000000E+00  0.00000000E+00  0.00000000E+00
  0.00000000E+00  0.00000000E+00  0.00000000E+00
  0.00000000E+00  0.00000000E+00  0.00000000E+00
  0.00000000E+00  0.00000000E+00  0.00000000E+00
  0.00000000E+00  0.00000000E+00  0.00000000E+00
  0.00000000E+00  0.00000000E+00  0.00000000E+00
  0.00000000E+00  0.00000000E+00  0.00000000E+00
  0.00000000E+00  0.00000000E+00  0.00000000E+00
  0.00000000E+00  0.00000000E+00  0.00000000E+00
  0.00000000E+00  0.00000000E+00  0.00000000E+00
  0.00000000E+00  0.00000000E+00  0.00000000E+00
  0.00000000E+00  0.00000000E+00  0.00000000E+00
  0.00000000E+00  0.00000000E+00  0.00000000E+00
  0.00000000E+00  0.00000000E+00  0.00000000E+00
  0.00000000E+00  0.00000000E+00  0.00000000E+00
  0.00000000E+00  0.00000000E+00  0.00000000E+00
  0.00000000E+00  0.00000000E+00  0.00000000E+00
  0.00000000E+00  0.00000000E+00  0.00000000E+00
  0.00000000E+00  0.00000000E+00  0.00000000E+00
  0.00000000E+00  0.00000000E+00  0.00000000E+00
  0.00000000E+00  0.00000000E+00  0.00000000E+00
  0.00000000E+00  0.00000000E+00  0.00000000E+00
  0.00000000E+00  0.00000000E+00  0.00000000E+00
  0.00000000E+00  0.00000000E+00  0.00000000E+00
  0.00000000E+00  0.00000000E+00  0.00000000E+00
  0.00000000E+00  0.00000000E+00  0.00000000E+00
  0.00000000E+00  0.00000000E+00  0.00000000E+00
  0.00000000E+00  0.00000000E+00  0.00000000E+00
  0.00000000E+00  0.00000000E+00  0.00000000E+00
  0.00000000E+00  0.00000000E+00  0.00000000E+00
  0.00000000E+00  0.00000000E+00  0.00000000E+00
  0.00000000E+00  0.00000000E+00  0.00000000E+00
  0.00000000E+00  0.00000000E+00  0.00000000E+00
  0.00000000E+00  0.00000000E+00  0.00000000E+00
  0.00000000E+00  0.00000000E+00  0.00000000E+00
  0.00000000E+00  0.00000000E+00  0.00000000E+00
  0.00000000E+00  0.00000000E+00  0.00000000E+00
  0.00000000E+00  0.00000000E+00  0.00000000E+00
  0.00000000E+00  0.00000000E+00  0.00000000E+00
  0.00000000E+00  0.00000000E+00  0.00000000E+00
  0.00000000E+00  0.00000000E+00  0.00000000E+00
  0.00000000E+00  0.00000000E+00  0.00000000E+00
  0.00000000E+00  0.00000000E+00  0.00000000E+00
  0.00000000E+00  0.00000000E+00  0.00000000E+00
  0.00000000E+00  0.00000000E+00  0.00000000E+00
  0.00000000E+00  0.00000000E+00  0.00000000E+00
  0.00000000E+00  0.00000000E+00  0.00000000E+00
  0.00000000E+00  0.00000000E+00  0.00000000E+00
  0.00000000E+00  0.00000000E+00  0.00000000E+00
  0.00000000E+00  0.00000000E+00  0.00000000E+00
  0.00000000E+00  0.00000000E+00  0.00000000E+00
  0.00000000E+00  0.00000000E+00  0.00000000E+00
  0.00000000E+00  0.00000000E+00  0.00000000E+00
  0.00000000E+00  0.00000000E+00  0.00000000E+00
  0.00000000E+00  0.00000000E+00  0.00000000E+00
  0.00000000E+00  0.00000000E+00  0.00000000E+00
  0.00000000E+00  0.00000000E+00  0.00000000E+00
  0.00000000E+00  0.00000000E+00  0.00000000E+00
  0.00000000E+00  0.00000000E+00  0.00000000E+00
  0.00000000E+00  0.00000000E+00  0.00000000E+00
  0.00000000E+00  0.00000000E+00  0.00000000E+00
  0.00000000E+00  0.00000000E+00  0.00000000E+00
  0.00000000E+00  0.00000000E+00  0.00000000E+00
  0.00000000E+00  0.00000000E+00  0.00000000E+00
  0.00000000E+00  0.00000000E+00  0.00000000E+00
  0.00000000E+00  0.00000000E+00  0.00000000E+00
  0.00000000E+00  0.00000000E+00  0.00000000E+00
  0.00000000E+00  0.00000000E+00  0.00000000E+00
  0.00000000E+00  0.00000000E+00  0.00000000E+00
  0.00000000E+00  0.00000000E+00  0.00000000E+00
  0.00000000E+00  0.00000000E+00  0.00000000E+00
  0.00000000E+00  0.00000000E+00  0.00000000E+00
  0.00000000E+00  0.00000000E+00  0.00000000E+00
  0.00000000E+00  0.00000000E+00  0.00000000E+00
  0.00000000E+00  0.00000000E+00  0.00000000E+00
  0.00000000E+00  0.00000000E+00  0.00000000E+00
  0.00000000E+00  0.00000000E+00  0.00000000E+00
  0.00000000E+00  0.00000000E+00  0.00000000E+00
  0.00000000E+00  0.00000000E+00  0.00000000E+00
  0.00000000E+00  0.00000000E+00  0.00000000E+00
  0.00000000E+00  0.00000000E+00  0.00000000E+00
  0.00000000E+00  0.00000000E+00  0.00000000E+00
  0.00000000E+00  0.00000000E+00  0.00000000E+00
  0.00000000E+00  0.00000000E+00  0.00000000E+00
  0.00000000E+00  0.00000000E+00  0.00000000E+00
  0.00000000E+00  0.00000000E+00  0.00000000E+00
  0.00000000E+00  0.00000000E+00  0.00000000E+00
  0.00000000E+00  0.00000000E+00  0.00000000E+00
  0.00000000E+00  0.00000000E+00  0.00000000E+00
  0.00000000E+00  0.00000000E+00  0.00000000E+00
  0.00000000E+00  0.00000000E+00  0.00000000E+00
  0.00000000E+00  0.00000000E+00  0.00000000E+00
  0.00000000E+00  0.00000000E+00  0.00000000E+00
  0.00000000E+00  0.00000000E+00  0.00000000E+00
  0.00000000E+00  0.00000000E+00  0.00000000E+00
  0.00000000E+00  0.00000000E+00  0.00000000E+00
  0.00000000E+00  0.00000000E+00  0.00000000E+00
  0.00000000E+00  0.00000000E+00  0.00000000E+00
  0.00000000E+00  0.00000000E+00  0.00000000E+00
  0.00000000E+00  0.00000000E+00  0.00000000E+00
  0.00000000E+00  0.00000000E+00  0.00000000E+00
  0.00000000E+00  0.00000000E+00  0.00000000E+00
  0.00000000E+00  0.00000000E+00  0.00000000E+00
  0.00000000E+00  0.00000000E+00  0.00000000E+00
  0.00000000E+00  0.00000000E+00  0.00000000E+00
  0.00000000E+00  0.00000000E+00  0.00000000E+00
  0.00000000E+00  0.00000000E+00  0.00000000E+00
  0.00000000E+00  0.00000000E+00  0.00000000E+00
  0.00000000E+00  0.00000000E+00  0.00000000E+00
  0.00000000E+00  0.00000000E+00  0.00000000E+00
  0.00000000E+00  0.00000000E+00  0.00000000E+00
  0.00000000E+00  0.00000000E+00  0.00000000E+00
  0.00000000E+00  0.00000000E+00  0.00000000E+00
  0.00000000E+00  0.00000000E+00  0.00000000E+00
  0.00000000E+00  0.00000000E+00  0.00000000E+00
  0.00000000E+00  0.00000000E+00  0.00000000E+00
  0.00000000E+00  0.00000000E+00  0.00000000E+00
  0.00000000E+00  0.00000000E+00  0.00000000E+00
  0.00000000E+00  0.00000000E+00  0.00000000E+00
  0.00000000E+00  0.00000000E+00  0.00000000E+00
  0.00000000E+00  0.00000000E+00  0.00000000E+00
  0.00000000E+00  0.00000000E+00  0.00000000E+00
  0.00000000E+00  0.00000000E+00  0.00000000E+00
  0.00000000E+00  0.00000000E+00  0.00000000E+00
  0.00000000E+00  0.00000000E+00  0.00000000E+00
  0.00000000E+00  0.00000000E+00  0.00000000E+00
  0.00000000E+00  0.00000000E+00  0.00000000E+00
  0.00000000E+00  0.00000000E+00  0.00000000E+00
  0.00000000E+00  0.00000000E+00  0.00000000E+00
  0.00000000E+00  0.00000000E+00  0.00000000E+00
  0.00000000E+00  0.00000000E+00  0.00000000E+00
  0.00000000E+00  0.00000000E+00  0.00000000E+00
  0.00000000E+00  0.00000000E+00  0.00000000E+00
  0.00000000E+00  0.00000000E+00  0.00000000E+00
  0.00000000E+00  0.00000000E+00  0.00000000E+00
  0.00000000E+00  0.00000000E+00  0.00000000E+00
  0.00000000E+00  0.00000000E+00  0.00000000E+00
  0.00000000E+00  0.00000000E+00  0.00000000E+00
  0.00000000E+00  0.00000000E+00  0.00000000E+00
  0.00000000E+00  0.00000000E+00  0.00000000E+00
  0.00000000E+00  0.00000000E+00  0.00000000E+00
  0.00000000E+00  0.00000000E+00  0.00000000E+00
  0.00000000E+00  0.00000000E+00  0.00000000E+00