O  Si Ru C  H 
 1.0000000000000000
    20.3096463179830877    0.0000000000000000    0.0000000000000000
     0.0000000000000000   19.8625212307842212    0.0000000000000000
     0.0000000000000000    0.0000000000000000   13.3711533343531652
 O   Si  Ru  C   H  
 192  96   2   2   4
Selective dynamics
Cartesian
 10.2486680116530913  1.4196031200615715  9.4504238482763814   T   T   T
 20.2431064278033119 11.2629778659334026  2.8403209222310215   T   T   T
 10.2584502953054564  8.5180897391356503  9.4626338540845651   T   T   T
 20.2439326964864854 18.6114371687607800  2.8420978364645735   T   T   T
 10.0677858051242630 18.4076328971239320  3.9050571602893163   T   T   T
  0.0900837968941946  8.5417801582823998 10.5592521613481711   T   T   T
 10.0695341475887847 11.3797587616565092  3.9147320950533242   T   T   T
  0.0869496304133568  1.3724742928985534 10.5197641957003647   T   T   T
  7.9520150520663062  1.2363405570353256 10.7123429080493349   T   T   T
  2.2762861180039553 11.2613884258459365  4.0287857292886295   F   F   F
  7.9550312594604176  8.6756690343450646 10.7248047148768020   T   T   T
  2.2676336677969831 18.5571778142509878  4.0198000557756757   F   F   F
 12.3808002471412042 18.5574935712892177  2.6768401364288579   T   T   T
 18.0760654871984059  8.6346853825717798  9.3231228885859263   T   T   T
 12.3759184636980120 11.2417553425428114  2.6705625064266290   T   T   T
 18.0529570258927343  1.3152597641802923  9.3319766079564594   T   T   T
  8.1467776646381758  2.7594924209613705  8.5587769009507344   T   T   T
  1.9166551808463170 12.6985387641126124  1.8331765845429255   F   F   F
  8.1530866067273315  7.2045661383927282  8.5391831064071138   T   T   T
  1.8595762350127709 17.0884156473932656  1.8547149561224641   F   F   F
 12.1189351623335142 17.0766237185183023  4.8725794918052632   T   T   T
 18.3225251191030587  7.2212310383768328 11.5423705762325000   T   T   T
 12.1297430114884754 12.7177384205723722  4.8689419263632780   T   T   T
 18.3556694417808508  2.7201633249935391 11.5483443472904632   T   T   T
  8.2422127545370678  0.1051980908991379  8.3158181022109900   T   T   T
  1.9886678601978358 10.0363408535556200  1.6835026045677999   F   F   F
  8.2599131699490922  9.8619462272740197  8.3537567507673103   T   T   T
  2.0425135487799317 19.7350322684967807  1.6441473819730119   F   F   F
 12.0688322767796965 19.7459881274764122  5.0373002961514777   T   T   T
 18.3794053917633811  9.8883346255963609 11.6381980195638857   T   T   T
 12.0818762709025371 10.0533074549454255  5.0324611298792288   T   T   T
 18.3817464512251263  0.0497412913754429 11.6406062237724779   T   T   T
  6.5620053579757380  0.7967290408966899 12.9074495279392565   T   T   T
  3.5863867466967689 10.6717555551804324  6.2475414303614123   T   T   T
  6.5518099287770521  9.1449350817001722 12.9120640120356693   T   T   T
  3.5879102987954621 19.0781479748172167  6.2399004809379068   T   T   T
 13.7857942763828820 19.0089351095064636  0.4856587884275368   T   T   T
 16.7326026045006095  9.2076233090607769  7.1291719272132488   T   T   T
 13.7910904860649293 10.7992412494125354  0.4827420606986659   T   T   T
 16.7192454077427861  0.7437144132852083  7.1324696677297466   T   T   T
  6.4004309011204885 18.9557259755224372 10.8275647548656746   T   T   T
  3.6830060155377464  9.0275225657263434  4.1118335664433046   F   F   F
  6.3975102256667551 10.8100467715289899 10.8027065925165591   T   T   T
  3.7358658415123078  0.8936046841970702  4.1277715780679580   F   F   F
 13.8913265450334489  0.8689725244459143  2.5420788481693428   T   T   T
 16.6912848018733655 10.8831729807893005  9.2317441942640617   T   T   T
 13.9100889676349713  9.0805291982417291  2.5369742397878610   T   T   T
 16.6826513171278137 18.9234429345861130  9.2308673819553970   T   T   T
  5.2951958748476908  1.4638613606110693 10.6786034541597417   T   T   T
  4.9446625107082038 11.3363222663389056  4.0779545675183755   F   F   F
  5.2990383461348927  8.4338757087308771 10.6814433237746123   T   T   T
  4.9275929059267680 18.4087415542868769  4.0545945595600070   F   F   F
 15.0253484448115557 18.3583312121310627  2.7375249479737906   T   T   T
 15.4075429225424418  8.5818985438011985  9.3348544312830182   T   T   T
 15.0178343346546708 11.4654282916169841  2.7398446978544508   T   T   T
 15.3835610045828286  1.3533775669898791  9.3308925700898477   T   T   T
  5.9452895367416625  2.4050117003856029  1.5296926215583202   F   F   F
  4.1951906379816881 12.3755126625632617  8.1708696748059353   T   T   T
  5.9405119612867390  7.4507459949246693  1.4651335116537678   F   F   F
  4.2135353029158891 17.4053546392409046  8.1863464034659224   T   T   T
 14.4872698948168512 17.3767517973285166 11.9031405753113528   T   T   T
 16.1272859275199920  7.5024681328818916  5.2060172004043119   T   T   T
 14.4932555055400094 12.4201650274401842 11.8952470287213128   T   T   T
 16.1323086143195980  2.4529815495729395  5.2080628441735639   T   T   T
  4.0300825273852423  1.0044853896778614  0.2809876861548781   F   F   F
  6.0749452334051153 10.7691683324711800  7.1399118430072219   T   T   T
  4.0457418672500500  8.9916495773538916  0.3599983616177614   F   F   F
  6.0723823715681284 19.0084902925159653  7.1269213943706875   T   T   T
 16.3040091097339293 18.9892507994294171 13.0331040207203674   T   T   T
 14.2454976383801899  9.0930959879730722  6.2411535664494924   T   T   T
 16.3094572393616097 10.8164770768112604 13.0329833274836684   T   T   T
 14.2375909751029024  0.8613787072158205  6.2231468508844499   T   T   T
  5.7482981723849438 19.6181525721041012  1.8265570602111043   F   F   F
  4.1441359730110445  9.7779623532839750  8.6758405143576134   T   T   T
  5.8917495712252013 10.0575728415693870  1.9420877905108134   F   F   F
  4.1400823265277493  0.1481355286546677  8.6557646241211739   T   T   T
 14.3936121734041862  0.1163301885229291 11.4740871056822584   T   T   T
 16.1768932517967272 10.1041505369922398  4.7136425241128039   T   T   T
 14.3996114878825932  9.8162250624871792 11.4738051782092203   T   T   T
 16.1824978379252755 19.7132426217331265  4.7153246767691854   T   T   T
  2.1534867980404488  2.5193571760916504  1.3564040376397863   F   F   F
  7.9021752317062282 12.4611101210187307  8.0728791899331434   T   T   T
  2.1764969730146606  7.3981516832904193  1.3608159929861621   F   F   F
  7.9115755603356845 17.3516680314631806  8.0936112440042276   T   T   T
 18.1511097086081890 17.3091207549308663 12.1220601933699008   T   T   T
 12.3931862119527061  7.4269806958870053  5.3261716875888698   T   T   T
 18.1611172125673939 12.4909299282737916 12.1133521257183823   T   T   T
 12.3702958019073961  2.5180516151632277  5.3180549664354251   T   T   T
  1.5660789103668826  0.9678495030282751 12.6721941008544263   T   T   T
  8.4486166052746192 10.9174688205837835  5.9651299670599460   T   T   T
  1.5998748825130147  8.9699643146930050 12.6909944223233175   T   T   T
  8.4356249940116719 18.8548151147470122  5.9510126195826940   T   T   T
 18.7605129675854201 19.0032587492406932  0.6888791230982304   T   T   T
 11.8646296336518748  8.9614417729460989  7.4059989564902704   T   T   T
 18.7698676714613200 10.8025264355817754  0.6849066628544872   T   T   T
 11.8688337520299321  0.9848162776535417  7.4058508493213644   T   T   T
  2.6812680654665386  1.6043694279797942 10.3347713286888254   T   T   T
  7.5194055225625283 11.4405966973537563  3.5019962254390786   T   T   T
  2.6809487008508830  8.3282192105233008 10.3498206764635334   T   T   T
  7.5144222322295322 18.5070457002532081  3.4466311867166479   T   T   T
 17.6509363084546358 18.3124261154177894  2.9943100928317530   T   T   T
 12.8261147279984744  8.4438121646039352  9.8328887178898761   T   T   T
 17.6468445574520345 11.4821707958208528  2.9818394256156706   T   T   T
 12.8058824486094505  1.4854692014226443  9.8484585844109542   T   T   T
  1.6405101943906542 19.0698175421400045 10.6700731630805574   T   T   T
  8.6791841876599669  9.1269580056809634  4.0075182471067139   T   T   T
  1.6185153083967736 10.7213053020100819 10.6766194936136198   T   T   T
  8.7670711251022873  0.8410262273295043  4.0548605016874015   T   T   T
 18.6597915021146932  0.8697856581453964  2.7253175555405531   T   T   T
 11.6622456283029088 10.7711809640574057  9.3521735630810667   T   T   T
 18.7265167129447008  9.0847984534978501  2.7288654401442076   T   T   T
 11.6457716383636445 19.0243537809710759  9.3388633766417897   T   T   T
  4.3010553347924585  2.8238803057438333  8.6934290909296283   T   T   T
  5.7784418835580782 12.7215736309573995  2.0136122889019794   F   F   F
  4.2703465320513612  7.1022342833493690  8.6875990651392172   T   T   T
  5.8889754846537192 16.9639103324457352  2.0756257640415958   F   F   F
 16.1772497937847355 17.0284818900765167  4.6929896810085303   T   T   T
 14.5166450521189336  7.1519907056807233 11.3502314966852129   T   T   T
 16.1979320587831204 12.7854669263869525  4.6869060795854001   T   T   T
 14.5067969641354129  2.7830196845288984 11.3504083731217875   T   T   T
 10.1309487350513034 16.8512771271058348  9.5299800221875319   T   T   T
 -0.0001934007019888  6.9591502950262063  2.8661190408959532   F   F   F
 10.1307791391478581 12.9370482765703674  9.5073596367641304   T   T   T
 -0.0039410998750495  2.9502212193088764  2.8822103944498818   F   F   F
 10.1682490315389149  3.0787298688849858  3.8831626510296182   T   T   T
 20.2769669086533355 12.7896810963329504 10.4862371538744856   T   T   T
 10.1726374373202724  6.9250041501376316  3.8949544220155801   T   T   T
 20.2855259811661561 17.0137021036898339 10.5252980055377012   T   T   T
  7.7975144303442017 16.6972802335112824 10.6805739639158617   T   T   T
  2.3614432042593880  6.7238922205213605  3.9395068238864410   F   F   F
  7.8043424867772284 13.0698132700743486 10.6742053868620399   T   T   T
  2.3554599133216785  3.1682417214574130  3.9407166975109922   F   F   F
 12.5012361227932587  3.1347496873971834  2.7227349201699433   T   T   T
 17.8845690621364497 13.2399465496926165  9.5639648247496538   T   T   T
 12.4932627683665238  6.8303383847697985  2.7229657026895713   T   T   T
 17.9004768229706777 16.5811721715756910  9.5640038615521696   T   T   T
  8.4447604363831079 14.8952293808025846  8.8447003915732481   T   T   T
  1.5830897014277656  4.9550061512861925  2.1112548602660950   F   F   F
 11.8879015898197693  4.9836332202228650  4.5490832388148599   T   T   T
 18.8954928544274061 14.9013893721063422 11.3713850881371403   T   T   T
  6.3912577547741698 17.2542664867593203 12.8463271545084901   T   T   T
  3.7286651216750042  7.3268150503221916  6.1143711352577812   T   T   T
  6.3898815024596436 12.5072043911684023 12.8220828455262019   T   T   T
  3.7290369580762932  2.5949660231951821  6.1303108039581540   T   T   T
 13.9136869885924792  2.6108312229708872  0.5509523581768843   T   T   T
 16.7312303719615763 12.6678679514083576  7.2727524535186179   T   T   T
 13.9046449213948318  7.3300403714476889  0.5490953435060811   T   T   T
 16.7236706441651748 17.1360719265749495  7.2761152649902572   T   T   T
  5.1430171852473281 16.6419013894254704 10.5802188090146316   T   T   T
  5.0074340563464546  6.7371493529854058  3.8593984458656223   F   F   F
  5.1555957517382272 13.1307652204848324 10.5498324795887672   T   T   T
  4.9987414842837454  3.2128867250844131  3.8843465660404299   F   F   F
 15.1491242972513724  3.1755164068569526  2.8309279015802087   T   T   T
 15.2399295396036454 13.0932718382501836  9.4200152845806837   T   T   T
 15.1406650803826839  6.7628391026073551  2.8303697560336416   T   T   T
 15.2511272209193951 16.7029070794037970  9.4336078779365629   T   T   T
  5.9001929883503355 14.8704520380749372  0.5053257370403368   F   F   F
  4.1385725039766381  4.9630484853926617  7.1923092311160488   T   T   T
 14.3008168879702211  4.9695985159303344 12.7892138934665844   T   T   T
 15.8361144459362837 14.9028869718052661  6.1754542359529561   T   T   T
  3.9447007437749386 16.6732138395216332  0.2729334651924611   F   F   F
  6.1653976725218067  6.6623887701146778  6.8644818350642822   T   T   T
  3.9265518008820748 13.1320113203045157  0.1443270332068732   F   F   F
  6.1769046416617002  3.2792482333991422  6.8550900381797133   T   T   T
 16.3502995786948553  3.3113757066868859 13.1927154916629750   T   T   T
 14.2237968982965572 12.8104459760640239  6.4785725708171995   T   T   T
 16.3437738394367393  6.6245050067051370 13.2140503774430602   T   T   T
 14.2105161918552323 16.9873012164802937  6.4893349228487454   T   T   T
  1.9450327968632497 14.9001483563900763  0.3854064100700170   F   F   F
  8.2164931638492344  4.9823333303333257  7.1359420238699016   T   T   T
 18.4159186419115422  4.9743506805864985 12.9040259037536025   T   T   T
 12.5755363498028760 14.8953796856184990  6.2851891581956059   T   T   T
  1.6088346647533922 17.2561111556273339 12.5930252625153098   T   T   T
  8.5263891219460906  7.3221854520241729  5.9186025777870501   T   T   T
  1.5450241318426217 12.5551049656835136 12.5839503706991529   T   T   T
  8.5627511035717063  2.6454937680955508  5.9467770284526278   T   T   T
 18.7070795759807176  2.6644496476502511  0.7971529539332340   T   T   T
 11.8126747448580254 12.6624971991052586  7.5076117345456170   T   T   T
 18.7030739879977332  7.2925423457388820  0.7912095298270002   T   T   T
 11.7926012615643945 17.1195614040295645  7.5091744842280645   T   T   T
  2.5446556447354709 16.6447181586992947 10.1509493875669836   T   T   T
  7.6083477898691703  6.7667877085902806  3.4529426502973801   T   T   T
  2.5470154406474874 13.1354494462518065 10.1543045152723064   T   T   T
  7.5987625951122126  3.1536266126529680  3.4902791388006840   T   T   T
 17.7446672687680831  3.2920718853115494  3.2311086372451649   T   T   T
 12.6839447681086739 13.1086062563141752 10.0219972465057037   T   T   T
 17.7397005006339938  6.6811947257059590  3.2260624672124583   T   T   T
 12.6895326369328121 16.6976192328108262 10.0179146274384969   T   T   T
  4.0715911143672869 14.8916042418403887  8.8983912147584956   T   T   T
  6.1207189519883336  4.9491891150077851  2.2329901004602521   F   F   F
 16.1672406206508441  4.9784678243582769  4.4953447372763256   T   T   T
 14.2815798822517781 14.8988880582105114 11.1237289233292174   T   T   T
  8.6462531653504957  1.3725980291556910  9.2458464342381390   T   T   T
  1.5299408321097943 11.3072227001653172  2.5840814491890951   F   F   F
  8.6554280080996389  8.5727200531034011  9.2578069897818054   T   T   T
  1.5233412208519244 18.5090949644065184  2.5743436884365605   F   F   F
 11.6660680072405558 18.4530681109503476  4.1369312820575574   T   T   T
 18.7969824680221080  8.5740000053205492 10.7808664216492911   T   T   T
 11.6665879181535850 11.3434384427386359  4.1351098560065376   T   T   T
 18.7975706407219043  1.3617429242541352 10.7770675659658028   T   T   T
  6.5527595287167930  0.6481375641749816 11.2923607182762922   T   T   T
  3.6236471766677956 10.5732092427067741  4.6293423709978212   T   T   T
  6.5500399199327326  9.2629813081625034 11.2954813042135367   T   T   T
  3.6272060461879283 19.2080771686137695  4.6253265232508918   T   T   T
 13.7728115788976702 19.1673334634200572  2.0990943389461938   T   T   T
 16.7224865304649732  9.3281819064781590  8.7438389228252156   T   T   T
 13.7742068150258223 10.6442209272952706  2.0965835629505660   T   T   T
 16.7065231271283210  0.6159836312943461  8.7467723010647180   T   T   T
  5.5708669141766238  1.0031443561638287  0.8066256040967551   F   F   F
  4.5099596602379410 10.8999806474582073  7.5663717150168059   T   T   T
  5.6022473135432325  8.9104252850689729  0.8394743836447202   F   F   F
  4.5119513104023250 18.8749122743471638  7.5627424393467697   T   T   T
 14.7493248901705680 18.8350959528660518 12.5614263171085607   T   T   T
 15.8104610860092674  8.9741676161252943  5.8129728848080644   T   T   T
 14.7553754242809205 10.9636695592026285 12.5581017433908535   T   T   T
 15.8063230051173864  0.9823193643110714  5.8107680949497027   T   T   T
  2.4493914495969293  1.0882295517357063  0.6526631354246935   F   F   F
  7.6644759935407354 11.0095825382547865  7.3745516384481054   T   T   T
  2.4596312408047449  8.8499544687575327  0.6876660533635440   F   F   F
  7.6633563922399794 18.7857585553030795  7.3687877320091282   T   T   T
 17.8885666163397694 18.8018551586463651 12.7100789085492689   T   T   T
 12.6541365448811174  8.8841936375149206  5.9958366642527228   T   T   T
 17.8938289375199311 11.0016455497615997 12.7078362680030530   T   T   T
 12.6438636975286833  1.0620794938253189  5.9886006557744578   T   T   T
  1.4943207322495713  0.7793023700945879 11.0591943710352059   T   T   T
  8.6676199724833047 10.7157851055836719  4.3701008434971396   T   T   T
  1.4971263576036160  9.1509692029926537 11.0808013909194241   T   T   T
  8.6914723863384555 19.1131785751776526  4.3730934415192699   T   T   T
 18.8263363507183499 19.1737074796294777  2.3017858832592442   T   T   T
 11.6586386375178854  9.1868096880616417  8.9984485826536122   T   T   T
 18.8460423622542947 10.6475179069321282  2.3001290785525561   T   T   T
 11.6502601037563362  0.7482499883970732  8.9944831793702598   T   T   T
  4.1047460918506999  1.4848714836407000  9.5772381098574275   T   T   T
  6.0379327185960712 11.3758289250287614  2.8798717841783166   F   F   F
  4.1012083129850616  8.4352499878767144  9.5869255525513335   T   T   T
  6.0244151913420474 18.4099132285093923  2.8616825485774675   F   F   F
 16.2513915044257331 18.3760779714913234  3.7998249350666486   T   T   T
 14.2903298328983510  8.5179829399107163 10.5095010233937050   T   T   T
 16.2519921487094976 11.4369710715718220  3.7924372203994539   T   T   T
 14.2750483145884743  1.4159566373321841 10.5137814314176570   T   T   T
  8.5842554654691874 16.4569878750240051  9.2745796793010520   T   T   T
  1.5253403262290728  6.5134350846748221  2.5608248971320076   F   F   F
  8.5811221513435729 13.3308846425417133  9.2696850426905151   T   T   T
  1.5174805020059812  3.3992792305907038  2.5656521228683173   F   F   F
 11.7288416340411406  3.4244462174781258  4.1270131463503130   T   T   T
 18.8090329226323583 13.3513935928282379 10.8919864718625199   T   T   T
 11.7272427138587734  6.5444801113759619  4.1317247341990866   T   T   T
 18.8097340729436482 16.4539002867589623 10.9021377611509802   T   T   T
  6.4351805228335026 17.3841606186537376 11.2242250622724100   T   T   T
  3.6980844751991255  7.4507238421052238  4.4975568991664048   T   T   T
  6.4357578168751308 12.3803224107557988 11.2041276032172412   T   T   T
  3.7018280864345279  2.4733469168281115  4.5132960444916792   T   T   T
 13.8621314150245976  2.4477263992792193  2.1655119393511044   T   T   T
 16.6382381812352378 12.4652962316219025  8.8803630764751471   T   T   T
 13.8602787695590024  7.5007875290500081  2.1636562553509515   T   T   T
 16.6407137841584891 17.3391416013098301  8.8840653116727299   T   T   T
  5.5182604597961573 16.4324329909574836  0.5634016622833579   F   F   F
  4.5898119000905906  6.5121444331482676  7.2224171236605850   T   T   T
  5.4910089738701604 13.3050969521854974  0.5395805803487468   F   F   F
  4.6014577214301111  3.4188216875938813  7.2256717199737430   T   T   T
 14.7758834966474151  3.4239364920583300 12.8085674205788536   T   T   T
 15.7422567485480780 13.2994134268822357  6.1486726808435552   T   T   T
 14.7736535991975817  6.5164165318590435 12.8127505823620211   T   T   T
 15.7305827235158766 16.5057608472614881  6.1542711005556505   T   T   T
  2.3405450535112360 16.4687328482956978  0.4364465459113281   F   F   F
  7.7624447677900115  6.5394539376003449  7.1145009842588633   T   T   T
  2.3369777424963813 13.3265449000106813  0.3990815840771333   F   F   F
  7.7706001249643908  3.4242740198613624  7.1286954310203354   T   T   T
 17.9498777249780126  3.4221186547455682 12.9501363166393517   T   T   T
 12.6786271360510785 13.2842275282612103  6.2853296844386088   T   T   T
 17.9412649470100938  6.5242436378401338 12.9529887798286332   T   T   T
 12.6664670134785950 16.5071023969481203  6.2889640315661008   T   T   T
  1.4492635508104088 17.4935033938515794 10.9902724111530343   T   T   T
  8.7379706839601639  7.5404640982909061  4.3193451195343835   T   T   T
  1.4296120639601557 12.3008304668256905 10.9789684460942283   T   T   T
  8.7635256464628331  2.4284165838894691  4.3467117921866176   T   T   T
 18.8467945298293920  2.4467781425981370  2.4024654817670310   T   T   T
 11.5860634176048514 12.3669847188715050  9.0901755683677248   T   T   T
 18.8604162052779536  7.5034549152050696  2.3978293405214810   T   T   T
 11.5785002042054703 17.4251500382218047  9.0906538920416704   T   T   T
  3.9915259531566663 16.4175901929052266  9.4525825098271863   T   T   T
  6.1721409379571615  6.4911478491643759  2.7523471404968500   F   F   F
  3.9883185100637388 13.3601068286186369  9.4421059471135678   T   T   T
  6.1692675878018797  3.4191919576416372  2.7776720422796521   F   F   F
 16.2967695713381033  3.4557500218499859  3.9448363634047294   T   T   T
 14.1718976663782144 13.3625869096525456 10.6158483639448029   T   T   T
 16.2949285438511318  6.5010668714412905  3.9426420886756786   T   T   T
 14.1723725389450497 16.4358837622873253 10.6200236966373343   T   T   T
  7.1472560253431334 15.4465327939091264  3.5437870571634584   T   T   T
  7.4944585847240779 14.8885564900930483  5.7276090398433928   T   T   T
  9.2619901877911968 14.5209600579845066  5.5953375058659516   T   T   T
  8.7661893059551250 15.0974650104181993  2.7511641905199085   T   T   T
  9.9175315488806302 14.5754759637850562  4.7087052327643963   T   T   T
  9.7447412192341485 14.1883070906643276  6.5299017816441305   T   T   T
  9.5760727205295204 15.8475377574886274  2.7284905103573043   T   T   T
  9.0138490458061824 14.0972712140567129  2.3538643648268449   T   T   T
