O  Si Ru C  H                           
   1.00000000000000     
    20.3096463179830877    0.0000000000000000    0.0000000000000000
     0.0000000000000000   19.8625212307842212    0.0000000000000000
     0.0000000000000000    0.0000000000000000   13.3711533343531652
   O    Si   Ru   C    H 
   192    96     2     1     4
Selective dynamics
Direct
  0.5029151419623901  0.0735660596726220  0.7069316305773725   F   F   F
  0.9975465120921569  0.5722056013321435  0.2087406600889281   F   F   F
  0.5029625376940245  0.4265088223227380  0.7071140439527213   F   F   F
  0.9972310926375343  0.9278269251878513  0.2087752225935873   F   F   F
  0.4975769408983908  0.9279468729804137  0.2902391597047966   F   F   F
  0.0032184386695491  0.4269330484855089  0.7921409749159594   F   F   F
  0.4977203592960961  0.5720242044357065  0.2903984015411680   F   F   F
  0.0031941412613889  0.0729668753257329  0.7917158063303020   F   F   F
  0.3878579723645430  0.0669556667519231  0.7965548156122182   F   F   F
  0.1133759987999525  0.5681642766849038  0.2964373645987877   F   F   F
  0.3878584358486918  0.4330437684886519  0.7965742164748164   F   F   F
  0.1131943502464026  0.9318376230805683  0.2960812599923202   F   F   F
  0.6133304824493777  0.9319496497907309  0.2023610617696718   F   F   F
  0.8876973671888919  0.4327342034956771  0.7036508835393036   F   F   F
  0.6135821534334056  0.5682784344751042  0.2033449439821382   F   F   F
  0.8876117469000917  0.0673661435016157  0.7035018781795443   F   F   F
  0.4009161058478412  0.1389419031021148  0.6318180153029829   F   F   F
  0.0975605638844357  0.6393306060090254  0.1310270302492853   F   F   F
  0.4010424696537882  0.3610528181545121  0.6318133081225312   F   F   F
  0.0971642134946080  0.8608409480907540  0.1307590082359411   F   F   F
  0.5979876006638349  0.8612794938613959  0.3678586418847232   F   F   F
  0.9019278058779037  0.3610410398314983  0.8685731531220142   F   F   F
  0.5979574041817770  0.6389948832237309  0.3687939607244530   F   F   F
  0.9020589687179950  0.1389418631131747  0.8685141393728202   F   F   F
  0.4059805669348791  0.0047442563955897  0.6216751015979938   F   F   F
  0.0951764573732916  0.5048736608876467  0.1227496371721131   F   F   F
  0.4060063268505516  0.4952757309538711  0.6217644002593659   F   F   F
  0.0948674645112888  0.9951728962727415  0.1226003873434607   F   F   F
  0.5950574293747408  0.9955917827588507  0.3757246283605511   F   F   F
  0.9063174878259801  0.4953848205285425  0.8779651251188270   F   F   F
  0.5950752590078494  0.5043549968709016  0.3761727772273389   F   F   F
  0.9063218528932850  0.0045785558899212  0.8776992153014049   F   F   F
  0.3240114434950669  0.0382407076679172  0.9638230470655600   F   F   F
  0.1763485455368254  0.5378781522500660  0.4641542393044347   F   F   F
  0.3240639192643968  0.4618354887910741  0.9638665486159397   F   F   F
  0.1759260284561748  0.9617943329158720  0.4641023519749083   F   F   F
  0.6766673960749756  0.9621365510767532  0.0356724123703316   F   F   F
  0.8239264782183469  0.4615726959520288  0.5363529546552854   F   F   F
  0.6766273407468262  0.5380862158563389  0.0360413412402991   F   F   F
  0.8238113343158346  0.0383815205381524  0.5362542402135873   F   F   F
  0.3214925543640277  0.9537076044608170  0.8070918608037161   F   F   F
  0.1776758631529702  0.4534601678782408  0.3068976961336460   F   F   F
  0.3217291042216033  0.5466230856040681  0.8071625387420625   F   F   F
  0.1777392319065001  0.0465284403162727  0.3069405612850815   F   F   F
  0.6782953929680886  0.0464276494116262  0.1929820249193881   F   F   F
  0.8214903320832505  0.5463853187552132  0.6930224919608605   F   F   F
  0.6783411531563246  0.4536225664016982  0.1930928964972622   F   F   F
  0.8213255382886686  0.9535588174489860  0.6932490817868384   F   F   F
  0.2563457342386215  0.0684226129951071  0.8017762481607349   F   F   F
  0.2448952522016867  0.5671912581414134  0.3029801725596926   F   F   F
  0.2563604704749665  0.4316428390570621  0.8018556833268136   F   F   F
  0.2446808719522195  0.9326482131859777  0.3035253527606017   F   F   F
  0.7447321473585120  0.9320590252899947  0.1973841645679499   F   F   F
  0.7562410131176875  0.4314383528184749  0.6983979119208144   F   F   F
  0.7450790913829763  0.5677876932779427  0.1974180494790900   F   F   F
  0.7561874466482195  0.0686029683221889  0.6982838657223311   F   F   F
  0.2923457530791964  0.1261305060343005  0.1042687178754136   F   F   F
  0.2082470189301588  0.6261911817317767  0.6038114452775858   F   F   F
  0.2924222850649301  0.3739550916486252  0.1043750301760937   F   F   F
  0.2102163104565662  0.8735640615782714  0.6034850085069010   F   F   F
  0.7080759527318676  0.8739196262251170  0.8957368973329736   F   F   F
  0.7920626114484861  0.3741440791997874  0.3955590558159940   F   F   F
  0.7087383849621958  0.6262230857360365  0.8960776843896028   F   F   F
  0.7918328172678528  0.1258395964698522  0.3955348022627305   F   F   F
  0.2009180106485928  0.0428348962614322  0.0293984412057924   F   F   F
  0.2996968197579477  0.5426935160259490  0.5294112209858000   F   F   F
  0.2010372834083469  0.4573071122565651  0.0296181964629270   F   F   F
  0.2997637532723303  0.9585879602040919  0.5282073338201911   F   F   F
  0.7997254776760911  0.9573935553966706  0.9694860840901498   F   F   F
  0.7007908648720971  0.4573025797676209  0.4705712418615562   F   F   F
  0.7997060817570443  0.5420944581861136  0.9703302267615257   F   F   F
  0.7006462591275380  0.0424959606184885  0.4703037048025678   F   F   F
  0.2961454260310177  0.9964934327823229  0.1466406641386442   F   F   F
  0.2042062705839172  0.4967531181442908  0.6471179485467573   F   F   F
  0.2967512456497943  0.5034965594674716  0.1468170404423290   F   F   F
  0.2042827147657746  0.0033044922153636  0.6469642495983621   F   F   F
  0.7035695737600207  0.0031082455789999  0.8524917251822970   F   F   F
  0.7966009577419371  0.5038039927924629  0.3537093559489008   F   F   F
  0.7037483821235924  0.4970039567455018  0.8526551329040757   F   F   F
  0.7965219537569652  0.9961296521007270  0.3534185101033032   F   F   F
  0.1093131791865716  0.1272507473097590  0.0964945470806668   F   F   F
  0.3899461836841667  0.6264906531772070  0.6008182103303028   F   F   F
  0.1096159065423521  0.3727429065902896  0.0968433397711834   F   F   F
  0.3880044572441506  0.8730597739784329  0.6011224514716247   F   F   F
  0.8909494569608540  0.8725643212022263  0.9017759797142944   F   F   F
  0.6094185792695015  0.3723840888363128  0.4038542259655458   F   F   F
  0.8904817982609856  0.6272908545295337  0.9020800344726112   F   F   F
  0.6094041022901209  0.1276315479534134  0.4037605891893747   F   F   F
  0.0831048349475765  0.0475109685477975  0.9435687042287597   F   F   F
  0.4176871806418063  0.5499813561623768  0.4438436836473443   F   F   F
  0.0831856777148303  0.4523523729842580  0.9438997465468049   F   F   F
  0.4183747122839208  0.9504538348648381  0.4445698802826143   F   F   F
  0.9170983970854394  0.9511126260077347  0.0563655005978916   F   F   F
  0.5827906879946028  0.4530925389524398  0.5556375829759830   F   F   F
  0.9173413997613409  0.5488456328287370  0.0565855780411937   F   F   F
  0.5826187119468287  0.0467912904197689  0.5553540539617146   F   F   F
  0.1296231040844802  0.0799627804154994  0.7634423203244225   F   F   F
  0.3713805715389924  0.5807279038530382  0.2623249302738841   F   F   F
  0.1296318253701898  0.4200410798835748  0.7636759413020187   F   F   F
  0.3711386275766699  0.9197216062103166  0.2628231941717587   F   F   F
  0.8709574056747940  0.9194715092316557  0.2371683847280366   F   F   F
  0.6292993944101113  0.4207916246772925  0.7356744224965155   F   F   F
  0.8713626048482652  0.5804791718471378  0.2374900436238292   F   F   F
  0.6292492851724560  0.0793042870953116  0.7352598947508895   F   F   F
  0.0747115096794673  0.9605004382468181  0.7919740224287537   F   F   F
  0.4241131313273669  0.4613752091790673  0.2948144036777691   F   F   F
  0.0748028995871124  0.5391836990524368  0.7923195950701611   F   F   F
  0.4241964469789892  0.0386462131336458  0.2945780170194396   F   F   F
  0.9248077689555814  0.0391348004589247  0.2067119060627078   F   F   F
  0.5730250382433582  0.5395395133105296  0.7075292341394857   F   F   F
  0.9246677977408950  0.4608033835361240  0.2067758124953869   F   F   F
  0.5735473219711409  0.9607799627803573  0.7073245261658059   F   F   F
  0.2161824121332003  0.1373904738735874  0.6463271447778780   F   F   F
  0.2826739853500655  0.6369626208540211  0.1472069811703420   F   F   F
  0.2161517510064428  0.3626744318723070  0.6464343906898762   F   F   F
  0.2826592026081727  0.8625929536584067  0.1481057801815737   F   F   F
  0.7831570123363107  0.8621545928428418  0.3531462774918523   F   F   F
  0.7150253360603145  0.3628167424777686  0.8534947758407938   F   F   F
  0.7832899267629614  0.6377876977005101  0.3529631966470959   F   F   F
  0.7148261493384283  0.1372886464544649  0.8532633160024901   F   F   F
  0.4966463709462445  0.8534721223490962  0.7130051681385297   F   F   F
  0.0036584267006603  0.3545747407892605  0.2132407109572441   F   F   F
  0.4972333445260375  0.6483031558681063  0.7136273834990519   F   F   F
  0.0035385368081577  0.1455500153788094  0.2131493366729131   F   F   F
  0.5037287630216625  0.1445781717231256  0.2864470147087275   F   F   F
  0.9967257976304964  0.6461521978637990  0.7862841517636241   F   F   F
  0.5037707510527198  0.3555116669135501  0.2864961434610791   F   F   F
  0.9970803648605937  0.8534600588223782  0.7856434900828901   F   F   F
  0.3800098243543815  0.8344291808698543  0.7911997989399850   F   F   F
  0.1210268688035399  0.3338110613837486  0.2872208120334179   F   F   F
  0.3799245593895080  0.6663793938649789  0.7897865688559875   F   F   F
  0.1209586482013023  0.1660553506375635  0.2869694551628612   F   F   F
  0.6210864063625010  0.1658884040414250  0.2130439895052163   F   F   F
  0.8796047019950137  0.6652722046469748  0.7109895114558071   F   F   F
  0.6211110157533284  0.3341538800550268  0.2131485949028544   F   F   F
  0.8796170312801053  0.8347050579492858  0.7108744816328496   F   F   F
  0.4229582404998027  0.7504377478997952  0.6504823012950567   F   F   F
  0.0746191832608716  0.2500230315661014  0.1491574075772419   F   F   F
  0.5737535633323603  0.2500033269389590  0.3499372146450668   F   F   F
  0.9243814818171856  0.7499970828550317  0.8489268305864712   F   F   F
  0.3154090106079295  0.8664667087253974  0.9564441695265415   F   F   F
  0.1831382099758727  0.3656193254218110  0.4546788161282862   F   F   F
  0.3158035654808771  0.6340110924299651  0.9556647727415992   F   F   F
  0.1830710617180671  0.1345150281137819  0.4545914900688217   F   F   F
  0.6830517762348904  0.1344874634880142  0.0452736917138168   F   F   F
  0.8156154179315678  0.6337118899547889  0.5445180365932316   F   F   F
  0.6830854472072687  0.3655253709567745  0.0454288807432022   F   F   F
  0.8154964441968389  0.8665367518124256  0.5446386948150632   F   F   F
  0.2492494209519265  0.8429283206485394  0.7883092971096559   F   F   F
  0.2513284304882717  0.3439160443049900  0.2888596437238746   F   F   F
  0.2491728964942013  0.6570370968580121  0.7880084837231678   F   F   F
  0.2512496259875334  0.1561531436267387  0.2887659973841181   F   F   F
  0.7514064122389215  0.1563514770940770  0.2107774734307739   F   F   F
  0.7491879939329849  0.6568080470336284  0.7113141362930619   F   F   F
  0.7514333991542230  0.3437018738677295  0.2109204239965408   F   F   F
  0.7492018748938492  0.8431985009297378  0.7112493886998124   F   F   F
  0.2965395293384319  0.7497992294358582  0.0478981125105804   F   F   F
  0.2037513614112356  0.2500402232570522  0.5473130572547689   F   F   F
  0.7036288451255430  0.2500227799147439  0.9524367183681051   F   F   F
  0.7973410971165862  0.7501549435816841  0.4532797231337398   F   F   F
  0.1949782238053643  0.8309309714990718  0.0077422094532409   F   F   F
  0.3039760542072045  0.3321511197779401  0.5063204852821102   F   F   F
  0.1951685928877041  0.6691509778451845  0.0072997367134207   F   F   F
  0.3039535270350342  0.1678850199576374  0.5061614664230731   F   F   F
  0.8037674365760594  0.1675499430433049  0.9919476301601620   F   F   F
  0.6955908769296144  0.6702270930867513  0.4922188934044058   F   F   F
  0.8038193000716305  0.3323998958156906  0.9923103515000236   F   F   F
  0.6956251597749628  0.8301235272454690  0.4920291286310174   F   F   F
  0.0912519342956841  0.7500229047819644  0.0217175897179942   F   F   F
  0.4070684857934594  0.2499810289984339  0.5234879823940233   F   F   F
  0.9068306617426174  0.2499858845960929  0.9771434341541791   F   F   F
  0.5903904960775819  0.7500012614638791  0.4761950937448773   F   F   F
  0.0813207400080955  0.8694382976768580  0.9343179242459030   F   F   F
  0.4196731292247478  0.3690835510139365  0.4362494260570955   F   F   F
  0.0811535465976547  0.6302688903771951  0.9352069356467680   F   F   F
  0.4196318579545562  0.1308483549065897  0.4362280688829117   F   F   F
  0.9187871414795694  0.1307480475178480  0.0643944961597001   F   F   F
  0.5813334066669995  0.6307311543933594  0.5645770937834200   F   F   F
  0.9189813415853791  0.3691962182345989  0.0643979391319860   F   F   F
  0.5809382800149194  0.8695065701500866  0.5640956067116960   F   F   F
  0.1224932547817090  0.8411179781321394  0.7475773435867481   F   F   F
  0.3782191667140111  0.3406282260943811  0.2495822814269246   F   F   F
  0.1222576506745696  0.6598029866130517  0.7489596712392554   F   F   F
  0.3781398319688947  0.1593484212036174  0.2495850342034558   F   F   F
  0.8780772199561611  0.1597428608575626  0.2513021010905376   F   F   F
  0.6225745123660928  0.6592035933415232  0.7514120395498622   F   F   F
  0.8781527669198397  0.3400969411418018  0.2511874583142415   F   F   F
  0.6225014726669400  0.8404067261963419  0.7507461478311868   F   F   F
  0.2013653672961482  0.7501996565200955  0.6657781289758233   F   F   F
  0.2996637301077030  0.2500277610362360  0.1677077677577756   F   F   F
  0.7990848778479602  0.2499825440223233  0.3330224582314472   F   F   F
  0.7004575547294536  0.7499248500866358  0.8333051273026868   F   F   F
  0.4243120677247703  0.0706248793323780  0.6882720414480872   F   F   F
  0.0760515629478533  0.5707141827737630  0.1887833199971851   F   F   F
  0.4243642501694112  0.4293781953153299  0.6883255931551702   F   F   F
  0.0759304822052584  0.9294113948730498  0.1885874575052355   F   F   F
  0.5758346757412340  0.9295316698119649  0.3103449515430867   F   F   F
  0.9246233627582825  0.4294307430317730  0.8116017276557059   F   F   F
  0.5761242863364586  0.5706873103235637  0.3109170475815333   F   F   F
  0.9246201416023538  0.0705567486414296  0.8113905219130189   F   F   F
  0.3223819734165474  0.0318316953936488  0.8430151480515420   F   F   F
  0.1780452314772205  0.5317164602638726  0.3432883448099062   F   F   F
  0.3224146420772769  0.4682209026483264  0.8430421287326908   F   F   F
  0.1781084147096053  0.9681588396523182  0.3431658884922371   F   F   F
  0.6781476426849906  0.9681975212994871  0.1565466076302897   F   F   F
  0.8222945580976031  0.4680597921700667  0.6571628257407198   F   F   F
  0.6784011481407290  0.5319538700143198  0.1569513425766544   F   F   F
  0.8222309627981090  0.0319692201244450  0.6570775164942972   F   F   F
  0.2779123087333701  0.0511264612777964  0.0613109493893447   F   F   F
  0.2226568316635706  0.5510577151876532  0.5612541371714030   F   F   F
  0.2780423512307522  0.4489808195105951  0.0614569707557564   F   F   F
  0.2230628819847169  0.9492894123668663  0.5606752590697042   F   F   F
  0.7225125450490495  0.9490249233173316  0.9383179365174357   F   F   F
  0.7778141510926559  0.4491288428941544  0.4387963766751781   F   F   F
  0.7227333495790305  0.5509907875996660  0.9386600761461779   F   F   F
  0.7777079553616204  0.0507975122443085  0.4386758489674847   F   F   F
  0.1224574189986996  0.0532732866075847  0.0483851064646856   F   F   F
  0.3779769887972222  0.5535711134250292  0.5484128788570217   F   F   F
  0.1226107360804676  0.4467220309073738  0.0486672413644982   F   F   F
  0.3776770996034173  0.9466616889367856  0.5479963611413723   F   F   F
  0.8780832486882133  0.9464508757786021  0.9511398078799829   F   F   F
  0.6224157232441314  0.4466922016762993  0.4511188640456680   F   F   F
  0.8780396312731398  0.5534298767382921  0.9515768464672476   F   F   F
  0.6222660347702487  0.0532503084769687  0.4508426119537319   F   F   F
  0.0728412340832634  0.0397062233897643  0.8238019586723624   F   F   F
  0.4277437962122690  0.5407555480855848  0.3241855554615896   F   F   F
  0.0728651157205249  0.4602342044834629  0.8241694721060924   F   F   F
  0.4274075037155498  0.9591980255302275  0.3242548801506189   F   F   F
  0.9274601142533285  0.9600512427375136  0.1758990143959380   F   F   F
  0.5722872311394767  0.4606056157916711  0.6753226260991951   F   F   F
  0.9275541845522710  0.5399426299954300  0.1762338123948481   F   F   F
  0.5722002755176163  0.0394245703525797  0.6750904917086089   F   F   F
  0.2016626826565684  0.0714697559756701  0.7134550092025691   F   F   F
  0.2988993987442186  0.5712898499085739  0.2141871586954238   F   F   F
  0.2016336523030233  0.4285870286521600  0.7135974393340589   F   F   F
  0.2986959689370892  0.9283279877877320  0.2140115866637373   F   F   F
  0.7988800873767445  0.9284847264574339  0.2861591316765697   F   F   F
  0.7012003299792298  0.4288186369106910  0.7861858612953654   F   F   F
  0.7990674709343182  0.5717379632341064  0.2865965737987679   F   F   F
  0.7010838455696202  0.0712665571672204  0.7859514996808130   F   F   F
  0.4223494586706877  0.8287212870481966  0.6897158839331041   F   F   F
  0.0769156502417161  0.3279886870119242  0.1860147788485307   F   F   F
  0.4225166312054895  0.6720154285036983  0.6883231376776919   F   F   F
  0.0768112818279434  0.1720160537428654  0.1858265876985072   F   F   F
  0.5767129546629590  0.1718671486741741  0.3139569590465925   F   F   F
  0.9230767305256720  0.6717431249447827  0.8127906510879299   F   F   F
  0.5767212789286447  0.3281510196691713  0.3140415784961021   F   F   F
  0.9231755518334950  0.8279091228012874  0.8125435073401306   F   F   F
  0.3166191002598211  0.8742739923470708  0.8361197868198929   F   F   F
  0.1833074541364965  0.3740495101119237  0.3339202901998917   F   F   F
  0.3166386851727125  0.6258730416008333  0.8351721689362179   F   F   F
  0.1832639004326140  0.1259627486727979  0.3338573048679194   F   F   F
  0.6834029271010706  0.1259062829963540  0.1659798546337825   F   F   F
  0.8165480694919296  0.6256703144154798  0.6655149643274569   F   F   F
  0.6834285715484469  0.3741454557802228  0.1661310163765606   F   F   F
  0.8163557758312621  0.8744280417183887  0.6656121327069968   F   F   F
  0.2724786834860708  0.8273139262369469  0.0407815186118086   F   F   F
  0.2271237881017711  0.3276058948125495  0.5390136658916944   F   F   F
  0.2726711241687738  0.6726057159388503  0.0402542309073368   F   F   F
  0.2271202873219309  0.1724799435127480  0.5389173023724467   F   F   F
  0.7267472501634842  0.1723610876501098  0.9604303881170466   F   F   F
  0.7724632980010213  0.6728242914627103  0.4605463361007978   F   F   F
  0.7268216124557796  0.3276504608084423  0.9606404345553159   F   F   F
  0.7722935978879235  0.8272871130444699  0.4604666526182584   F   F   F
  0.1168615197120673  0.8275209752746733  0.0242901223600427   F   F   F
  0.3827581189327915  0.3278378273251619  0.5246491080329818   F   F   F
  0.1169109919895632  0.6722221218602655  0.0243756877012089   F   F   F
  0.3827275409154680  0.1721328363621524  0.5246189896410982   F   F   F
  0.8826748189633378  0.1720728385653771  0.9752648999179740   F   F   F
  0.6163324239081689  0.6725024288719226  0.4753175091905533   F   F   F
  0.8827059240094073  0.3279195982384806  0.9753863353167560   F   F   F
  0.6161933216325437  0.8279493661743231  0.4746742160038266   F   F   F
  0.0693795867454128  0.8811430179840798  0.8155607918324179   F   F   F
  0.4310362713513314  0.3815536136468793  0.3171561254436810   F   F   F
  0.0693874168194029  0.6189479562124092  0.8160029626504510   F   F   F
  0.4310160210270055  0.1184563301937942  0.3171106125946963   F   F   F
  0.9308107186515571  0.1189823214311971  0.1834600447849795   F   F   F
  0.5687828735517044  0.6194265151636742  0.6839348968501895   F   F   F
  0.9308747943928424  0.3809922836910218  0.1834914197417490   F   F   F
  0.5687588112711595  0.8807539776980704  0.6830214178396119   F   F   F
  0.1959922974161117  0.8279389850884229  0.7016846736480247   F   F   F
  0.3055343881691073  0.3279008594260304  0.2027792002935414   F   F   F
  0.1954450270308072  0.6722027369941017  0.7021847547165336   F   F   F
  0.3054784587058776  0.1721382358153463  0.2027155232773481   F   F   F
  0.8051754997750677  0.1721935395061607  0.2975943809345409   F   F   F
  0.6950276470598098  0.6721836987755836  0.7979746016145697   F   F   F
  0.8052597360911449  0.3277658206369907  0.2976066237846595   F   F   F
  0.6947257216892950  0.8277972279161290  0.7976364414595594   F   F   F
  0.3297294923960976  0.7692583716027315  0.4511617449422758   F   F   F
  0.4373570285375763  0.7552854700985492  0.4273877250473959   F   F   F
  0.4426512911438820  0.7488910846345576  0.2785276787216659   T   T   T
  0.3720282479725299  0.7487991629637563  0.2961891630647600   T   T   T
  0.4788528830829506  0.7881438193787744  0.2502499099921351   T   T   T
  0.4653346720935119  0.6982038227089618  0.2583676726444963   T   T   T
  0.3399367299252276  0.7373682495379654  0.3381573156286165   T   T   T
 
  0.00000000E+00  0.00000000E+00  0.00000000E+00
  0.00000000E+00  0.00000000E+00  0.00000000E+00
  0.00000000E+00  0.00000000E+00  0.00000000E+00
  0.00000000E+00  0.00000000E+00  0.00000000E+00
  0.00000000E+00  0.00000000E+00  0.00000000E+00
  0.00000000E+00  0.00000000E+00  0.00000000E+00
  0.00000000E+00  0.00000000E+00  0.00000000E+00
  0.00000000E+00  0.00000000E+00  0.00000000E+00
  0.00000000E+00  0.00000000E+00  0.00000000E+00
  0.00000000E+00  0.00000000E+00  0.00000000E+00
  0.00000000E+00  0.00000000E+00  0.00000000E+00
  0.00000000E+00  0.00000000E+00  0.00000000E+00
  0.00000000E+00  0.00000000E+00  0.00000000E+00
  0.00000000E+00  0.00000000E+00  0.00000000E+00
  0.00000000E+00  0.00000000E+00  0.00000000E+00
  0.00000000E+00  0.00000000E+00  0.00000000E+00
  0.00000000E+00  0.00000000E+00  0.00000000E+00
  0.00000000E+00  0.00000000E+00  0.00000000E+00
  0.00000000E+00  0.00000000E+00  0.00000000E+00
  0.00000000E+00  0.00000000E+00  0.00000000E+00
  0.00000000E+00  0.00000000E+00  0.00000000E+00
  0.00000000E+00  0.00000000E+00  0.00000000E+00
  0.00000000E+00  0.00000000E+00  0.00000000E+00
  0.00000000E+00  0.00000000E+00  0.00000000E+00
  0.00000000E+00  0.00000000E+00  0.00000000E+00
  0.00000000E+00  0.00000000E+00  0.00000000E+00
  0.00000000E+00  0.00000000E+00  0.00000000E+00
  0.00000000E+00  0.00000000E+00  0.00000000E+00
  0.00000000E+00  0.00000000E+00  0.00000000E+00
  0.00000000E+00  0.00000000E+00  0.00000000E+00
  0.00000000E+00  0.00000000E+00  0.00000000E+00
  0.00000000E+00  0.00000000E+00  0.00000000E+00
  0.00000000E+00  0.00000000E+00  0.00000000E+00
  0.00000000E+00  0.00000000E+00  0.00000000E+00
  0.00000000E+00  0.00000000E+00  0.00000000E+00
  0.00000000E+00  0.00000000E+00  0.00000000E+00
  0.00000000E+00  0.00000000E+00  0.00000000E+00
  0.00000000E+00  0.00000000E+00  0.00000000E+00
  0.00000000E+00  0.00000000E+00  0.00000000E+00
  0.00000000E+00  0.00000000E+00  0.00000000E+00
  0.00000000E+00  0.00000000E+00  0.00000000E+00
  0.00000000E+00  0.00000000E+00  0.00000000E+00
  0.00000000E+00  0.00000000E+00  0.00000000E+00
  0.00000000E+00  0.00000000E+00  0.00000000E+00
  0.00000000E+00  0.00000000E+00  0.00000000E+00
  0.00000000E+00  0.00000000E+00  0.00000000E+00
  0.00000000E+00  0.00000000E+00  0.00000000E+00
  0.00000000E+00  0.00000000E+00  0.00000000E+00
  0.00000000E+00  0.00000000E+00  0.00000000E+00
  0.00000000E+00  0.00000000E+00  0.00000000E+00
  0.00000000E+00  0.00000000E+00  0.00000000E+00
  0.00000000E+00  0.00000000E+00  0.00000000E+00
  0.00000000E+00  0.00000000E+00  0.00000000E+00
  0.00000000E+00  0.00000000E+00  0.00000000E+00
  0.00000000E+00  0.00000000E+00  0.00000000E+00
  0.00000000E+00  0.00000000E+00  0.00000000E+00
  0.00000000E+00  0.00000000E+00  0.00000000E+00
  0.00000000E+00  0.00000000E+00  0.00000000E+00
  0.00000000E+00  0.00000000E+00  0.00000000E+00
  0.00000000E+00  0.00000000E+00  0.00000000E+00
  0.00000000E+00  0.00000000E+00  0.00000000E+00
  0.00000000E+00  0.00000000E+00  0.00000000E+00
  0.00000000E+00  0.00000000E+00  0.00000000E+00
  0.00000000E+00  0.00000000E+00  0.00000000E+00
  0.00000000E+00  0.00000000E+00  0.00000000E+00
  0.00000000E+00  0.00000000E+00  0.00000000E+00
  0.00000000E+00  0.00000000E+00  0.00000000E+00
  0.00000000E+00  0.00000000E+00  0.00000000E+00
  0.00000000E+00  0.00000000E+00  0.00000000E+00
  0.00000000E+00  0.00000000E+00  0.00000000E+00
  0.00000000E+00  0.00000000E+00  0.00000000E+00
  0.00000000E+00  0.00000000E+00  0.00000000E+00
  0.00000000E+00  0.00000000E+00  0.00000000E+00
  0.00000000E+00  0.00000000E+00  0.00000000E+00
  0.00000000E+00  0.00000000E+00  0.00000000E+00
  0.00000000E+00  0.00000000E+00  0.00000000E+00
  0.00000000E+00  0.00000000E+00  0.00000000E+00
  0.00000000E+00  0.00000000E+00  0.00000000E+00
  0.00000000E+00  0.00000000E+00  0.00000000E+00
  0.00000000E+00  0.00000000E+00  0.00000000E+00
  0.00000000E+00  0.00000000E+00  0.00000000E+00
  0.00000000E+00  0.00000000E+00  0.00000000E+00
  0.00000000E+00  0.00000000E+00  0.00000000E+00
  0.00000000E+00  0.00000000E+00  0.00000000E+00
  0.00000000E+00  0.00000000E+00  0.00000000E+00
  0.00000000E+00  0.00000000E+00  0.00000000E+00
  0.00000000E+00  0.00000000E+00  0.00000000E+00
  0.00000000E+00  0.00000000E+00  0.00000000E+00
  0.00000000E+00  0.00000000E+00  0.00000000E+00
  0.00000000E+00  0.00000000E+00  0.00000000E+00
  0.00000000E+00  0.00000000E+00  0.00000000E+00
  0.00000000E+00  0.00000000E+00  0.00000000E+00
  0.00000000E+00  0.00000000E+00  0.00000000E+00
  0.00000000E+00  0.00000000E+00  0.00000000E+00
  0.00000000E+00  0.00000000E+00  0.00000000E+00
  0.00000000E+00  0.00000000E+00  0.00000000E+00
  0.00000000E+00  0.00000000E+00  0.00000000E+00
  0.00000000E+00  0.00000000E+00  0.00000000E+00
  0.00000000E+00  0.00000000E+00  0.00000000E+00
  0.00000000E+00  0.00000000E+00  0.00000000E+00
  0.00000000E+00  0.00000000E+00  0.00000000E+00
  0.00000000E+00  0.00000000E+00  0.00000000E+00
  0.00000000E+00  0.00000000E+00  0.00000000E+00
  0.00000000E+00  0.00000000E+00  0.00000000E+00
  0.00000000E+00  0.00000000E+00  0.00000000E+00
  0.00000000E+00  0.00000000E+00  0.00000000E+00
  0.00000000E+00  0.00000000E+00  0.00000000E+00
  0.00000000E+00  0.00000000E+00  0.00000000E+00
  0.00000000E+00  0.00000000E+00  0.00000000E+00
  0.00000000E+00  0.00000000E+00  0.00000000E+00
  0.00000000E+00  0.00000000E+00  0.00000000E+00
  0.00000000E+00  0.00000000E+00  0.00000000E+00
  0.00000000E+00  0.00000000E+00  0.00000000E+00
  0.00000000E+00  0.00000000E+00  0.00000000E+00
  0.00000000E+00  0.00000000E+00  0.00000000E+00
  0.00000000E+00  0.00000000E+00  0.00000000E+00
  0.00000000E+00  0.00000000E+00  0.00000000E+00
  0.00000000E+00  0.00000000E+00  0.00000000E+00
  0.00000000E+00  0.00000000E+00  0.00000000E+00
  0.00000000E+00  0.00000000E+00  0.00000000E+00
  0.00000000E+00  0.00000000E+00  0.00000000E+00
  0.00000000E+00  0.00000000E+00  0.00000000E+00
  0.00000000E+00  0.00000000E+00  0.00000000E+00
  0.00000000E+00  0.00000000E+00  0.00000000E+00
  0.00000000E+00  0.00000000E+00  0.00000000E+00
  0.00000000E+00  0.00000000E+00  0.00000000E+00
  0.00000000E+00  0.00000000E+00  0.00000000E+00
  0.00000000E+00  0.00000000E+00  0.00000000E+00
  0.00000000E+00  0.00000000E+00  0.00000000E+00
  0.00000000E+00  0.00000000E+00  0.00000000E+00
  0.00000000E+00  0.00000000E+00  0.00000000E+00
  0.00000000E+00  0.00000000E+00  0.00000000E+00
  0.00000000E+00  0.00000000E+00  0.00000000E+00
  0.00000000E+00  0.00000000E+00  0.00000000E+00
  0.00000000E+00  0.00000000E+00  0.00000000E+00
  0.00000000E+00  0.00000000E+00  0.00000000E+00
  0.00000000E+00  0.00000000E+00  0.00000000E+00
  0.00000000E+00  0.00000000E+00  0.00000000E+00
  0.00000000E+00  0.00000000E+00  0.00000000E+00
  0.00000000E+00  0.00000000E+00  0.00000000E+00
  0.00000000E+00  0.00000000E+00  0.00000000E+00
  0.00000000E+00  0.00000000E+00  0.00000000E+00
  0.00000000E+00  0.00000000E+00  0.00000000E+00
  0.00000000E+00  0.00000000E+00  0.00000000E+00
  0.00000000E+00  0.00000000E+00  0.00000000E+00
  0.00000000E+00  0.00000000E+00  0.00000000E+00
  0.00000000E+00  0.00000000E+00  0.00000000E+00
  0.00000000E+00  0.00000000E+00  0.00000000E+00
  0.00000000E+00  0.00000000E+00  0.00000000E+00
  0.00000000E+00  0.00000000E+00  0.00000000E+00
  0.00000000E+00  0.00000000E+00  0.00000000E+00
  0.00000000E+00  0.00000000E+00  0.00000000E+00
  0.00000000E+00  0.00000000E+00  0.00000000E+00
  0.00000000E+00  0.00000000E+00  0.00000000E+00
  0.00000000E+00  0.00000000E+00  0.00000000E+00
  0.00000000E+00  0.00000000E+00  0.00000000E+00
  0.00000000E+00  0.00000000E+00  0.00000000E+00
  0.00000000E+00  0.00000000E+00  0.00000000E+00
  0.00000000E+00  0.00000000E+00  0.00000000E+00
  0.00000000E+00  0.00000000E+00  0.00000000E+00
  0.00000000E+00  0.00000000E+00  0.00000000E+00
  0.00000000E+00  0.00000000E+00  0.00000000E+00
  0.00000000E+00  0.00000000E+00  0.00000000E+00
  0.00000000E+00  0.00000000E+00  0.00000000E+00
  0.00000000E+00  0.00000000E+00  0.00000000E+00