O  Si Ru C  H                           
   1.00000000000000     
    20.3096463179830877    0.0000000000000000    0.0000000000000000
     0.0000000000000000   19.8625212307842212    0.0000000000000000
     0.0000000000000000    0.0000000000000000   13.3711533343531652
   O    Si   Ru   C    H 
   192    96     2     2     6
Selective dynamics
Direct
  0.5029151419623901  0.0735660596726220  0.7069316305773725   F   F   F
  0.9974950069085946  0.5722938681985271  0.2086769125853279   T   T   T
  0.5029625376940245  0.4265088223227380  0.7071140439527213   F   F   F
  0.9975066050314654  0.9275336948201897  0.2083571147818122   T   T   T
  0.4975124832301454  0.9277817239731568  0.2903397283003943   T   T   T
  0.0032184386695491  0.4269330484855089  0.7921409749159594   F   F   F
  0.4976711803577822  0.5720299722972795  0.2901942742735454   T   T   T
  0.0031941412613889  0.0729668753257329  0.7917158063303020   F   F   F
  0.3878579723645430  0.0669556667519231  0.7965548156122182   F   F   F
  0.1132346873711960  0.5680881943340841  0.2965717509853285   T   T   T
  0.3878584358486918  0.4330437684886519  0.7965742164748164   F   F   F
  0.1132609363053678  0.9319622790629694  0.2964239890559541   T   T   T
  0.6133484542394675  0.9316981758512001  0.2029066614464118   T   T   T
  0.8876973671888919  0.4327342034956771  0.7036508835393036   F   F   F
  0.6134801846796443  0.5684148702870104  0.2030705163838877   T   T   T
  0.8876117469000917  0.0673661435016157  0.7035018781795443   F   F   F
  0.4009161058478412  0.1389419031021148  0.6318180153029829   F   F   F
  0.0979091196350284  0.6391769841745903  0.1313256282004833   T   T   T
  0.4010424696537882  0.3610528181545121  0.6318133081225312   F   F   F
  0.0981771275937785  0.8608417064665252  0.1312637507019284   T   T   T
  0.5978057576322441  0.8611800453279115  0.3684829464189703   T   T   T
  0.9019278058779037  0.3610410398314983  0.8685731531220142   F   F   F
  0.5977615001489793  0.6388906373434149  0.3686733437756625   T   T   T
  0.9020589687179950  0.1389418631131747  0.8685141393728202   F   F   F
  0.4059805669348791  0.0047442563955897  0.6216751015979938   F   F   F
  0.0950702967587144  0.5048154259666198  0.1227827437545317   T   T   T
  0.4059009795582595  0.4951362299991535  0.6217472561614614   T   T   T
  0.0950015402194193  0.9951886001818172  0.1225941216027215   T   T   T
  0.5949843830562719  0.9956783455355622  0.3757327153589228   T   T   T
  0.9062623437178038  0.4953706366188686  0.8779920676406900   T   T   T
  0.5952729225943227  0.5044199720282642  0.3760537216069939   T   T   T
  0.9063218528932850  0.0045785558899212  0.8776992153014049   F   F   F
  0.3240114434950669  0.0382407076679172  0.9638230470655600   F   F   F
  0.1762519927669353  0.5379247401676978  0.4642847514830578   T   T   T
  0.3240639192643968  0.4618354887910741  0.9638665486159397   F   F   F
  0.1762576394599575  0.9620125524415772  0.4641778313305320   T   T   T
  0.6765814075526959  0.9619840768540513  0.0359153206854589   T   T   T
  0.8239264782183469  0.4615726959520288  0.5363529546552854   F   F   F
  0.6765441991303107  0.5381111968513115  0.0360077662232290   T   T   T
  0.8238113343158346  0.0383815205381524  0.5362542402135873   F   F   F
  0.3217126448887481  0.9533695901803790  0.8073789140846906   T   T   T
  0.1776758631529702  0.4534601678782408  0.3068976961336460   F   F   F
  0.3217609540612258  0.5466971358199371  0.8074543868607461   T   T   T
  0.1777392319065001  0.0465284403162727  0.3069405612850815   F   F   F
  0.6782953929680886  0.0464276494116262  0.1929820249193881   F   F   F
  0.8214145693958236  0.5463773217969299  0.6930742921634123   T   T   T
  0.6783411531563246  0.4536225664016982  0.1930928964972622   F   F   F
  0.8214374080052939  0.9536767744724282  0.6930823035819913   T   T   T
  0.2563457342386215  0.0684226129951071  0.8017762481607349   F   F   F
  0.2446993162577793  0.5674468565909981  0.3031992641261808   T   T   T
  0.2563604704749665  0.4316428390570621  0.8018556833268136   F   F   F
  0.2448081729054644  0.9326168012497844  0.3031010700421277   T   T   T
  0.7448286831186851  0.9321359550999464  0.1975343479915377   T   T   T
  0.7562410131176875  0.4314383528184749  0.6983979119208144   F   F   F
  0.7449643424076269  0.5678286032937625  0.1974418444253052   T   T   T
  0.7561874466482195  0.0686029683221889  0.6982838657223311   F   F   F
  0.2923457530791964  0.1261305060343005  0.1042687178754136   F   F   F
  0.2088139671856814  0.6260028604125599  0.6042557930574043   T   T   T
  0.2924222850649301  0.3739550916486252  0.1043750301760937   F   F   F
  0.2085213541684892  0.8739758840629648  0.6042506279587748   T   T   T
  0.7086612416652383  0.8739324757346608  0.8959993919906535   T   T   T
  0.7920626114484861  0.3741440791997874  0.3955590558159940   F   F   F
  0.7086985662485039  0.6262148108920775  0.8961232740305001   T   T   T
  0.7918328172678528  0.1258395964698522  0.3955348022627305   F   F   F
  0.2009180106485928  0.0428348962614322  0.0293984412057924   F   F   F
  0.2997417991308195  0.5425089845784745  0.5288934320423152   T   T   T
  0.2010372834083469  0.4573071122565651  0.0296181964629270   F   F   F
  0.2996881403245042  0.9573536360766770  0.5291850771596828   T   T   T
  0.7996438561659881  0.9579887183136493  0.9699957504040105   T   T   T
  0.7007908648720971  0.4573025797676209  0.4705712418615562   F   F   F
  0.7996494665256821  0.5421677320204149  0.9703406949255088   T   T   T
  0.7006462591275380  0.0424959606184885  0.4703037048025678   F   F   F
  0.2959701782324612  0.9964297371954572  0.1465367747302977   T   T   T
  0.2042583814450115  0.4967678869686170  0.6471455635363078   T   T   T
  0.2961344973292255  0.5037029487206662  0.1466141145906905   T   T   T
  0.2042827147657746  0.0033044922153636  0.6469642495983621   F   F   F
  0.7035695737600207  0.0031082455789999  0.8524917251822970   F   F   F
  0.7965725482101174  0.5038494926668914  0.3537421030840469   T   T   T
  0.7037400199514827  0.4970171549693547  0.8526408877519883   T   T   T
  0.7966422551666751  0.9961673407854825  0.3535950316581462   T   T   T
  0.1093131791865716  0.1272507473097590  0.0964945470806668   F   F   F
  0.3898869761549252  0.6265590882140072  0.6012139601664641   T   T   T
  0.1096159065423521  0.3727429065902896  0.0968433397711834   F   F   F
  0.3902880414557188  0.8734301411699761  0.6009849746128239   T   T   T
  0.8903126526202281  0.8727271662730017  0.9022329495774142   T   T   T
  0.6094185792695015  0.3723840888363128  0.4038542259655458   F   F   F
  0.8903517978045632  0.6272508720899940  0.9023340082091422   T   T   T
  0.6094041022901209  0.1276315479534134  0.4037605891893747   F   F   F
  0.0831048349475765  0.0475109685477975  0.9435687042287597   F   F   F
  0.4180872496947102  0.5496358394017169  0.4442935987566132   T   T   T
  0.0831856777148303  0.4523523729842580  0.9438997465468049   F   F   F
  0.4176876038233114  0.9503852974772361  0.4438794944300516   T   T   T
  0.9172211912564620  0.9511545288896339  0.0563870719905870   T   T   T
  0.5827906879946028  0.4530925389524398  0.5556375829759830   F   F   F
  0.9172737392963700  0.5488992054726873  0.0565954111080661   T   T   T
  0.5826187119468287  0.0467912904197689  0.5553540539617146   F   F   F
  0.1296231040844802  0.0799627804154994  0.7634423203244225   F   F   F
  0.3713122028390680  0.5796987763502304  0.2617101336743542   T   T   T
  0.1296318253701898  0.4200410798835748  0.7636759413020187   F   F   F
  0.3714383155180908  0.9202357560240882  0.2607946925198125   T   T   T
  0.8712609170192497  0.9195000658372273  0.2372087799805854   T   T   T
  0.6292993944101113  0.4207916246772925  0.7356744224965155   F   F   F
  0.8712922034435444  0.5804997062091709  0.2374748435029406   T   T   T
  0.6292492851724560  0.0793042870953116  0.7352598947508895   F   F   F
  0.0748098068176145  0.9607339098587504  0.7920306846340617   T   T   T
  0.4241131313273669  0.4613752091790673  0.2948144036777691   F   F   F
  0.0747490624484412  0.5392000190636154  0.7923741735718995   T   T   T
  0.4241964469789892  0.0386462131336458  0.2945780170194396   F   F   F
  0.9248077689555814  0.0391348004589247  0.2067119060627078   F   F   F
  0.5731599811480806  0.5395748360385076  0.7073650792325868   T   T   T
  0.9246677977408950  0.4608033835361240  0.2067758124953869   F   F   F
  0.5730592765190518  0.9604886727126133  0.7073249171700569   T   T   T
  0.2161824121332003  0.1373904738735874  0.6463271447778780   F   F   F
  0.2830776073914910  0.6375803070118717  0.1480756250704694   T   T   T
  0.2161517510064428  0.3626744318723070  0.6464343906898762   F   F   F
  0.2827886166259960  0.8626383268682286  0.1474410601781861   T   T   T
  0.7834895337634122  0.8621752265003582  0.3529238944473849   T   T   T
  0.7150253360603145  0.3628167424777686  0.8534947758407938   F   F   F
  0.7833641504899876  0.6378218753139290  0.3529574890987621   T   T   T
  0.7148261493384283  0.1372886464544649  0.8532633160024901   F   F   F
  0.4971600101408202  0.8518549610160737  0.7152136076496360   T   T   T
  0.0036584267006603  0.3545747407892605  0.2132407109572441   F   F   F
  0.4969416959853745  0.6479392057183816  0.7153243193461846   T   T   T
  0.0035385368081577  0.1455500153788094  0.2131493366729131   F   F   F
  0.5037287630216625  0.1445781717231256  0.2864470147087275   F   F   F
  0.9968700167850209  0.6463588845944825  0.7872208093277699   T   T   T
  0.5037707510527198  0.3555116669135501  0.2864961434610791   F   F   F
  0.9969128174126922  0.8536079352538890  0.7872185626323028   T   T   T
  0.3797797760592014  0.8338809410080058  0.7910770630569317   T   T   T
  0.1210268688035399  0.3338110613837486  0.2872208120334179   F   F   F
  0.3796351476110776  0.6662727377453830  0.7912433861726605   T   T   T
  0.1209586482013023  0.1660553506375635  0.2869694551628612   F   F   F
  0.6210864063625010  0.1658884040414250  0.2130439895052163   F   F   F
  0.8799152638138734  0.6651498169871287  0.7110459786639262   T   T   T
  0.6211110157533284  0.3341538800550268  0.2131485949028544   F   F   F
  0.8800580324486269  0.8349018651970536  0.7109298241213627   T   T   T
  0.4227657010374550  0.7499723023660130  0.6500110393248499   T   T   T
  0.0746191832608716  0.2500230315661014  0.1491574075772419   F   F   F
  0.5737535633323603  0.2500033269389590  0.3499372146450668   F   F   F
  0.9240608121058492  0.7499955664475784  0.8493736329809009   T   T   T
  0.3159293615322243  0.8658772881516814  0.9559856855618080   T   T   T
  0.1831382099758727  0.3656193254218110  0.4546788161282862   F   F   F
  0.3158794129297661  0.6340693767488009  0.9562684226567389   T   T   T
  0.1830710617180671  0.1345150281137819  0.4545914900688217   F   F   F
  0.6830517762348904  0.1344874634880142  0.0452736917138168   F   F   F
  0.8160663338311924  0.6338643357392942  0.5446119708506593   T   T   T
  0.6830854472072687  0.3655253709567745  0.0454288807432022   F   F   F
  0.8161842329299682  0.8661782350142491  0.5445630144543182   T   T   T
  0.2493121145866668  0.8431548799343898  0.7888135451910768   T   T   T
  0.2513284304882717  0.3439160443049900  0.2888596437238746   F   F   F
  0.2491618232187675  0.6567931274439426  0.7891226340211445   T   T   T
  0.2512496259875334  0.1561531436267387  0.2887659973841181   F   F   F
  0.7514064122389215  0.1563514770940770  0.2107774734307739   F   F   F
  0.7494943985206320  0.6569649753054526  0.7114968937653020   T   T   T
  0.7514333991542230  0.3437018738677295  0.2109204239965408   F   F   F
  0.7496629319235590  0.8430474065950370  0.7114803945999777   T   T   T
  0.2979631878102396  0.7500125480007961  0.0502220286234147   T   T   T
  0.2037513614112356  0.2500402232570522  0.5473130572547689   F   F   F
  0.7036288451255430  0.2500227799147439  0.9524367183681051   F   F   F
  0.7955189489438717  0.7499996549503648  0.4535805555602351   T   T   T
  0.1957347195335613  0.8295164757470973  0.0075290094893604   T   T   T
  0.3039760542072045  0.3321511197779401  0.5063204852821102   F   F   F
  0.1957678520170485  0.6703399501057228  0.0082525878221894   T   T   T
  0.3039535270350342  0.1678850199576374  0.5061614664230731   F   F   F
  0.8037674365760594  0.1675499430433049  0.9919476301601620   F   F   F
  0.6951798821838879  0.6677831625058908  0.4932015884635872   T   T   T
  0.8038193000716305  0.3323998958156906  0.9923103515000236   F   F   F
  0.6952769452442459  0.8323769271931689  0.4931282673429643   T   T   T
  0.0909079051815813  0.7500072713859179  0.0219110148405690   T   T   T
  0.4070684857934594  0.2499810289984339  0.5234879823940233   F   F   F
  0.9068306617426174  0.2499858845960929  0.9771434341541791   F   F   F
  0.5921007560300076  0.7500866342758427  0.4769848237697273   T   T   T
  0.0817744778172692  0.8699847253160296  0.9354594195635423   T   T   T
  0.4196731292247478  0.3690835510139365  0.4362494260570955   F   F   F
  0.0818904585274408  0.6301195235650975  0.9353983199784257   T   T   T
  0.4196318579545562  0.1308483549065897  0.4362280688829117   F   F   F
  0.9187871414795694  0.1307480475178480  0.0643944961597001   F   F   F
  0.5799664815750448  0.6310857401310885  0.5648278294803238   T   T   T
  0.9189813415853791  0.3691962182345989  0.0643979391319860   F   F   F
  0.5800270536558692  0.8691181563670788  0.5645554892481427   T   T   T
  0.1224758661904784  0.8403205518909778  0.7488830793815121   T   T   T
  0.3782191667140111  0.3406282260943811  0.2495822814269246   F   F   F
  0.1224047458893892  0.6594980277149861  0.7485831831002896   T   T   T
  0.3781398319688947  0.1593484212036174  0.2495850342034558   F   F   F
  0.8780772199561611  0.1597428608575626  0.2513021010905376   F   F   F
  0.6226836791600759  0.6592072999836601  0.7510816923215746   T   T   T
  0.8781527669198397  0.3400969411418018  0.2511874583142415   F   F   F
  0.6228422834467010  0.8409429898863778  0.7507926744931157   T   T   T
  0.2011134167389545  0.7499462925340536  0.6667825689638948   T   T   T
  0.2996637301077030  0.2500277610362360  0.1677077677577756   F   F   F
  0.7990848778479602  0.2499825440223233  0.3330224582314472   F   F   F
  0.7005870998886311  0.7500633374140938  0.8334171478227232   T   T   T
  0.4243120677247703  0.0706248793323780  0.6882720414480872   F   F   F
  0.0760324371814626  0.5706479307739850  0.1888299059886287   T   T   T
  0.4243642501694112  0.4293781953153299  0.6883255931551702   F   F   F
  0.0760717230214052  0.9293271414188397  0.1886812151998581   T   T   T
  0.5758633446757656  0.9294728993116864  0.3105185086796698   T   T   T
  0.9246233627582825  0.4294307430317730  0.8116017276557059   F   F   F
  0.5759829696260366  0.5705769696824341  0.3107122540284595   T   T   T
  0.9246201416023538  0.0705567486414296  0.8113905219130189   F   F   F
  0.3223819734165474  0.0318316953936488  0.8430151480515420   F   F   F
  0.1779722739494889  0.5317024356315856  0.3434055559180639   T   T   T
  0.3224146420772769  0.4682209026483264  0.8430421287326908   F   F   F
  0.1780430194213390  0.9682686151596271  0.3433099481953206   T   T   T
  0.6782766517352756  0.9681045329930709  0.1568067835309355   T   T   T
  0.8222945580976031  0.4680597921700667  0.6571628257407198   F   F   F
  0.6783329014032596  0.5319308882696943  0.1568952997853651   T   T   T
  0.8222309627981090  0.0319692201244450  0.6570775164942972   F   F   F
  0.2779123087333701  0.0511264612777964  0.0613109493893447   F   F   F
  0.2228460764447465  0.5509532181833736  0.5611741020773288   T   T   T
  0.2780423512307522  0.4489808195105951  0.0614569707557564   F   F   F
  0.2227502130908663  0.9489703983129124  0.5611668309208582   T   T   T
  0.7226447069989259  0.9491600464463733  0.9384585205149905   T   T   T
  0.7778141510926559  0.4491288428941544  0.4387963766751781   F   F   F
  0.7226718320389669  0.5510047828411840  0.9386383384262125   T   T   T
  0.7777079553616204  0.0507975122443085  0.4386758489674847   F   F   F
  0.1224574189986996  0.0532732866075847  0.0483851064646856   F   F   F
  0.3780134640628575  0.5536293329256529  0.5484784656616976   T   T   T
  0.1226107360804676  0.4467220309073738  0.0486672413644982   F   F   F
  0.3779784036169813  0.9462982417490468  0.5483963791922655   T   T   T
  0.8779924291993836  0.9465726198990778  0.9513286178217801   T   T   T
  0.6224157232441314  0.4466922016762993  0.4511188640456680   F   F   F
  0.8779987338986559  0.5534437355647188  0.9515668147260036   T   T   T
  0.6222660347702487  0.0532503084769687  0.4508426119537319   F   F   F
  0.0728412340832634  0.0397062233897643  0.8238019586723624   F   F   F
  0.4276597721868695  0.5408229484043738  0.3244879608915173   T   T   T
  0.0728651157205249  0.4602342044834629  0.8241694721060924   F   F   F
  0.4274711843186050  0.9592190277750723  0.3241546981613106   T   T   T
  0.9275581243257963  0.9600038889399513  0.1760213899058989   T   T   T
  0.5722872311394767  0.4606056157916711  0.6753226260991951   F   F   F
  0.9275245553407395  0.5399561637534973  0.1762377069028221   T   T   T
  0.5722002755176163  0.0394245703525797  0.6750904917086089   F   F   F
  0.2016626826565684  0.0714697559756701  0.7134550092025691   F   F   F
  0.2988018464948038  0.5712532044374307  0.2144023838549252   T   T   T
  0.2016336523030233  0.4285870286521600  0.7135974393340589   F   F   F
  0.2987020643204044  0.9287187629138430  0.2140517742084834   T   T   T
  0.7990198568246951  0.9282435644480371  0.2864901298954287   T   T   T
  0.7012003299792298  0.4288186369106910  0.7861858612953654   F   F   F
  0.7989999671839199  0.5717489264386184  0.2865780164231638   T   T   T
  0.7010838455696202  0.0712665571672204  0.7859514996808130   F   F   F
  0.4229524692056232  0.8281390190037148  0.6891740443059248   T   T   T
  0.0769156502417161  0.3279886870119242  0.1860147788485307   F   F   F
  0.4228073175497375  0.6718383820656615  0.6892720111179922   T   T   T
  0.0768112818279434  0.1720160537428654  0.1858265876985072   F   F   F
  0.5767129546629590  0.1718671486741741  0.3139569590465925   F   F   F
  0.9230711460947056  0.6719294700467052  0.8131217167072230   T   T   T
  0.5767212789286447  0.3281510196691713  0.3140415784961021   F   F   F
  0.9231214366983579  0.8280478624610655  0.8130813873842263   T   T   T
  0.3165247755455869  0.8741292605852203  0.8351639789534403   T   T   T
  0.1833074541364965  0.3740495101119237  0.3339202901998917   F   F   F
  0.3164578734486474  0.6259100434495979  0.8354080229155960   T   T   T
  0.1832639004326140  0.1259627486727979  0.3338573048679194   F   F   F
  0.6834029271010706  0.1259062829963540  0.1659798546337825   F   F   F
  0.8167733635120945  0.6257501030835665  0.6653873411149903   T   T   T
  0.6834285715484469  0.3741454557802228  0.1661310163765606   F   F   F
  0.8169114177031206  0.8743080035037133  0.6653433876406224   T   T   T
  0.2725112777008142  0.8272032945403963  0.0402068609082991   T   T   T
  0.2271237881017711  0.3276058948125495  0.5390136658916944   F   F   F
  0.2726001639658798  0.6727703539853569  0.0406604754860178   T   T   T
  0.2271202873219309  0.1724799435127480  0.5389173023724467   F   F   F
  0.7267472501634842  0.1723610876501098  0.9604303881170466   F   F   F
  0.7720517086075475  0.6723870969009830  0.4607258079181373   T   T   T
  0.7268216124557796  0.3276504608084423  0.9606404345553159   F   F   F
  0.7721644166718327  0.8276319660056958  0.4607065541602086   T   T   T
  0.1166811707055906  0.8274688787680465  0.0244129675924485   T   T   T
  0.3827581189327915  0.3278378273251619  0.5246491080329818   F   F   F
  0.1166634486457614  0.6725427783386447  0.0245543180211066   T   T   T
  0.3827275409154680  0.1721328363621524  0.5246189896410982   F   F   F
  0.8826748189633378  0.1720728385653771  0.9752648999179740   F   F   F
  0.6162656221546596  0.6721230823945891  0.4755471641387484   T   T   T
  0.8827059240094073  0.3279195982384806  0.9753863353167560   F   F   F
  0.6163926961750020  0.8279803907948728  0.4753931065490661   T   T   T
  0.0694101846531526  0.8810023944900082  0.8162556708646779   T   T   T
  0.4310362713513314  0.3815536136468793  0.3171561254436810   F   F   F
  0.0693786160394710  0.6189799686874108  0.8162657651620544   T   T   T
  0.4310160210270055  0.1184563301937942  0.3171106125946963   F   F   F
  0.9308107186515571  0.1189823214311971  0.1834600447849795   F   F   F
  0.5688267739961550  0.6194717537609560  0.6840875687905347   T   T   T
  0.9308747943928424  0.3809922836910218  0.1834914197417490   F   F   F
  0.5689131382238550  0.8806086218401311  0.6838530481836478   T   T   T
  0.1952144645353271  0.8277173025927869  0.7021535718139915   T   T   T
  0.3055343881691073  0.3279008594260304  0.2027792002935414   F   F   F
  0.1952212073718288  0.6721828013800233  0.7021891623766223   T   T   T
  0.3054784587058776  0.1721382358153463  0.2027155232773481   F   F   F
  0.8051754997750677  0.1721935395061607  0.2975943809345409   F   F   F
  0.6953067706144419  0.6722546167615063  0.7978926981210434   T   T   T
  0.8052597360911449  0.3277658206369907  0.2976066237846595   F   F   F
  0.6954010296892094  0.8278460136202499  0.7977777401824063   T   T   T
  0.3682042318486825  0.7497511296818835  0.2797282337488537   T   T   T
  0.4040289184536503  0.7496910194181177  0.4393787291179138   T   T   T
  0.4981268590613185  0.7733401475268054  0.1410139912358583   T   T   T
  0.5147584188756311  0.7256967599979552  0.0550857643833471   T   T   T
  0.5423958489868352  0.7946291893121558  0.1761122681794883   T   T   T
  0.4670775378409642  0.8156435895088399  0.1167766604994886   T   T   T
  0.4714846055349179  0.7461088848011308  0.2017782651743916   T   T   T
  0.4700597338384047  0.7047923283538308  0.0205607139694901   T   T   T
  0.5424215629686598  0.7519562482293813  0.9960571306935958   T   T   T
  0.5450305235068755  0.6832041964796671  0.0808057767590253   T   T   T
 
  0.00000000E+00  0.00000000E+00  0.00000000E+00
  0.00000000E+00  0.00000000E+00  0.00000000E+00
  0.00000000E+00  0.00000000E+00  0.00000000E+00
  0.00000000E+00  0.00000000E+00  0.00000000E+00
  0.00000000E+00  0.00000000E+00  0.00000000E+00
  0.00000000E+00  0.00000000E+00  0.00000000E+00
  0.00000000E+00  0.00000000E+00  0.00000000E+00
  0.00000000E+00  0.00000000E+00  0.00000000E+00
  0.00000000E+00  0.00000000E+00  0.00000000E+00
  0.00000000E+00  0.00000000E+00  0.00000000E+00
  0.00000000E+00  0.00000000E+00  0.00000000E+00
  0.00000000E+00  0.00000000E+00  0.00000000E+00
  0.00000000E+00  0.00000000E+00  0.00000000E+00
  0.00000000E+00  0.00000000E+00  0.00000000E+00
  0.00000000E+00  0.00000000E+00  0.00000000E+00
  0.00000000E+00  0.00000000E+00  0.00000000E+00
  0.00000000E+00  0.00000000E+00  0.00000000E+00
  0.00000000E+00  0.00000000E+00  0.00000000E+00
  0.00000000E+00  0.00000000E+00  0.00000000E+00
  0.00000000E+00  0.00000000E+00  0.00000000E+00
  0.00000000E+00  0.00000000E+00  0.00000000E+00
  0.00000000E+00  0.00000000E+00  0.00000000E+00
  0.00000000E+00  0.00000000E+00  0.00000000E+00
  0.00000000E+00  0.00000000E+00  0.00000000E+00
  0.00000000E+00  0.00000000E+00  0.00000000E+00
  0.00000000E+00  0.00000000E+00  0.00000000E+00
  0.00000000E+00  0.00000000E+00  0.00000000E+00
  0.00000000E+00  0.00000000E+00  0.00000000E+00
  0.00000000E+00  0.00000000E+00  0.00000000E+00
  0.00000000E+00  0.00000000E+00  0.00000000E+00
  0.00000000E+00  0.00000000E+00  0.00000000E+00
  0.00000000E+00  0.00000000E+00  0.00000000E+00
  0.00000000E+00  0.00000000E+00  0.00000000E+00
  0.00000000E+00  0.00000000E+00  0.00000000E+00
  0.00000000E+00  0.00000000E+00  0.00000000E+00
  0.00000000E+00  0.00000000E+00  0.00000000E+00
  0.00000000E+00  0.00000000E+00  0.00000000E+00
  0.00000000E+00  0.00000000E+00  0.00000000E+00
  0.00000000E+00  0.00000000E+00  0.00000000E+00
  0.00000000E+00  0.00000000E+00  0.00000000E+00
  0.00000000E+00  0.00000000E+00  0.00000000E+00
  0.00000000E+00  0.00000000E+00  0.00000000E+00
  0.00000000E+00  0.00000000E+00  0.00000000E+00
  0.00000000E+00  0.00000000E+00  0.00000000E+00
  0.00000000E+00  0.00000000E+00  0.00000000E+00
  0.00000000E+00  0.00000000E+00  0.00000000E+00
  0.00000000E+00  0.00000000E+00  0.00000000E+00
  0.00000000E+00  0.00000000E+00  0.00000000E+00
  0.00000000E+00  0.00000000E+00  0.00000000E+00
  0.00000000E+00  0.00000000E+00  0.00000000E+00
  0.00000000E+00  0.00000000E+00  0.00000000E+00
  0.00000000E+00  0.00000000E+00  0.00000000E+00
  0.00000000E+00  0.00000000E+00  0.00000000E+00
  0.00000000E+00  0.00000000E+00  0.00000000E+00
  0.00000000E+00  0.00000000E+00  0.00000000E+00
  0.00000000E+00  0.00000000E+00  0.00000000E+00
  0.00000000E+00  0.00000000E+00  0.00000000E+00
  0.00000000E+00  0.00000000E+00  0.00000000E+00
  0.00000000E+00  0.00000000E+00  0.00000000E+00
  0.00000000E+00  0.00000000E+00  0.00000000E+00
  0.00000000E+00  0.00000000E+00  0.00000000E+00
  0.00000000E+00  0.00000000E+00  0.00000000E+00
  0.00000000E+00  0.00000000E+00  0.00000000E+00
  0.00000000E+00  0.00000000E+00  0.00000000E+00
  0.00000000E+00  0.00000000E+00  0.00000000E+00
  0.00000000E+00  0.00000000E+00  0.00000000E+00
  0.00000000E+00  0.00000000E+00  0.00000000E+00
  0.00000000E+00  0.00000000E+00  0.00000000E+00
  0.00000000E+00  0.00000000E+00  0.00000000E+00
  0.00000000E+00  0.00000000E+00  0.00000000E+00
  0.00000000E+00  0.00000000E+00  0.00000000E+00
  0.00000000E+00  0.00000000E+00  0.00000000E+00
  0.00000000E+00  0.00000000E+00  0.00000000E+00
  0.00000000E+00  0.00000000E+00  0.00000000E+00
  0.00000000E+00  0.00000000E+00  0.00000000E+00
  0.00000000E+00  0.00000000E+00  0.00000000E+00
  0.00000000E+00  0.00000000E+00  0.00000000E+00
  0.00000000E+00  0.00000000E+00  0.00000000E+00
  0.00000000E+00  0.00000000E+00  0.00000000E+00
  0.00000000E+00  0.00000000E+00  0.00000000E+00
  0.00000000E+00  0.00000000E+00  0.00000000E+00
  0.00000000E+00  0.00000000E+00  0.00000000E+00
  0.00000000E+00  0.00000000E+00  0.00000000E+00
  0.00000000E+00  0.00000000E+00  0.00000000E+00
  0.00000000E+00  0.00000000E+00  0.00000000E+00
  0.00000000E+00  0.00000000E+00  0.00000000E+00
  0.00000000E+00  0.00000000E+00  0.00000000E+00
  0.00000000E+00  0.00000000E+00  0.00000000E+00
  0.00000000E+00  0.00000000E+00  0.00000000E+00
  0.00000000E+00  0.00000000E+00  0.00000000E+00
  0.00000000E+00  0.00000000E+00  0.00000000E+00
  0.00000000E+00  0.00000000E+00  0.00000000E+00
  0.00000000E+00  0.00000000E+00  0.00000000E+00
  0.00000000E+00  0.00000000E+00  0.00000000E+00
  0.00000000E+00  0.00000000E+00  0.00000000E+00
  0.00000000E+00  0.00000000E+00  0.00000000E+00
  0.00000000E+00  0.00000000E+00  0.00000000E+00
  0.00000000E+00  0.00000000E+00  0.00000000E+00
  0.00000000E+00  0.00000000E+00  0.00000000E+00
  0.00000000E+00  0.00000000E+00  0.00000000E+00
  0.00000000E+00  0.00000000E+00  0.00000000E+00
  0.00000000E+00  0.00000000E+00  0.00000000E+00
  0.00000000E+00  0.00000000E+00  0.00000000E+00
  0.00000000E+00  0.00000000E+00  0.00000000E+00
  0.00000000E+00  0.00000000E+00  0.00000000E+00
  0.00000000E+00  0.00000000E+00  0.00000000E+00
  0.00000000E+00  0.00000000E+00  0.00000000E+00
  0.00000000E+00  0.00000000E+00  0.00000000E+00
  0.00000000E+00  0.00000000E+00  0.00000000E+00
  0.00000000E+00  0.00000000E+00  0.00000000E+00
  0.00000000E+00  0.00000000E+00  0.00000000E+00
  0.00000000E+00  0.00000000E+00  0.00000000E+00
  0.00000000E+00  0.00000000E+00  0.00000000E+00
  0.00000000E+00  0.00000000E+00  0.00000000E+00
  0.00000000E+00  0.00000000E+00  0.00000000E+00
  0.00000000E+00  0.00000000E+00  0.00000000E+00
  0.00000000E+00  0.00000000E+00  0.00000000E+00
  0.00000000E+00  0.00000000E+00  0.00000000E+00
  0.00000000E+00  0.00000000E+00  0.00000000E+00
  0.00000000E+00  0.00000000E+00  0.00000000E+00
  0.00000000E+00  0.00000000E+00  0.00000000E+00
  0.00000000E+00  0.00000000E+00  0.00000000E+00
  0.00000000E+00  0.00000000E+00  0.00000000E+00
  0.00000000E+00  0.00000000E+00  0.00000000E+00
  0.00000000E+00  0.00000000E+00  0.00000000E+00
  0.00000000E+00  0.00000000E+00  0.00000000E+00
  0.00000000E+00  0.00000000E+00  0.00000000E+00
  0.00000000E+00  0.00000000E+00  0.00000000E+00
  0.00000000E+00  0.00000000E+00  0.00000000E+00
  0.00000000E+00  0.00000000E+00  0.00000000E+00
  0.00000000E+00  0.00000000E+00  0.00000000E+00
  0.00000000E+00  0.00000000E+00  0.00000000E+00
  0.00000000E+00  0.00000000E+00  0.00000000E+00
  0.00000000E+00  0.00000000E+00  0.00000000E+00
  0.00000000E+00  0.00000000E+00  0.00000000E+00
  0.00000000E+00  0.00000000E+00  0.00000000E+00
  0.00000000E+00  0.00000000E+00  0.00000000E+00
  0.00000000E+00  0.00000000E+00  0.00000000E+00
  0.00000000E+00  0.00000000E+00  0.00000000E+00
  0.00000000E+00  0.00000000E+00  0.00000000E+00
  0.00000000E+00  0.00000000E+00  0.00000000E+00
  0.00000000E+00  0.00000000E+00  0.00000000E+00
  0.00000000E+00  0.00000000E+00  0.00000000E+00
  0.00000000E+00  0.00000000E+00  0.00000000E+00
  0.00000000E+00  0.00000000E+00  0.00000000E+00
  0.00000000E+00  0.00000000E+00  0.00000000E+00
  0.00000000E+00  0.00000000E+00  0.00000000E+00
  0.00000000E+00  0.00000000E+00  0.00000000E+00
  0.00000000E+00  0.00000000E+00  0.00000000E+00
  0.00000000E+00  0.00000000E+00  0.00000000E+00
  0.00000000E+00  0.00000000E+00  0.00000000E+00
  0.00000000E+00  0.00000000E+00  0.00000000E+00
  0.00000000E+00  0.00000000E+00  0.00000000E+00
  0.00000000E+00  0.00000000E+00  0.00000000E+00
  0.00000000E+00  0.00000000E+00  0.00000000E+00
  0.00000000E+00  0.00000000E+00  0.00000000E+00
  0.00000000E+00  0.00000000E+00  0.00000000E+00
  0.00000000E+00  0.00000000E+00  0.00000000E+00
  0.00000000E+00  0.00000000E+00  0.00000000E+00
  0.00000000E+00  0.00000000E+00  0.00000000E+00
  0.00000000E+00  0.00000000E+00  0.00000000E+00