O  Si Ru C  H                           
   1.00000000000000     
    20.3096463179830877    0.0000000000000000    0.0000000000000000
     0.0000000000000000   19.8625212307842212    0.0000000000000000
     0.0000000000000000    0.0000000000000000   13.3711533343531652
   O    Si   Ru   C    H 
   192    96     2     2     6
Selective dynamics
Direct
  0.5025983423026972  0.0736772108545409  0.7069737858450367   F   F   F
  0.9973845741868388  0.5713590183995123  0.2100688440615954   F   F   F
  0.5030496701180951  0.4264905122489111  0.7071074794100625   F   F   F
  0.9973560596691584  0.9283302178628006  0.2098089303670108   F   F   F
  0.4976734553818005  0.9271975208449490  0.2913800450391619   F   F   F
  0.0031833971711990  0.4269534535970436  0.7921555590210403   F   F   F
  0.4976796338244540  0.5727641178581280  0.2912622235529270   F   F   F
  0.0032612300906720  0.0729204954578719  0.7917609341870602   F   F   F
  0.3877372034300279  0.0669237685003949  0.7965998572659601   F   F   F
  0.1135176981189758  0.5680284188661915  0.2964606640654495   F   F   F
  0.3878029950302420  0.4330235562951330  0.7965615651877584   F   F   F
  0.1135973528396192  0.9317282199076118  0.2962138197669404   F   F   F
  0.6130112385487294  0.9320603793644437  0.2027753851160128   F   F   F
  0.8876225530381490  0.4327376544666635  0.7036237954903868   F   F   F
  0.6131346429060258  0.5683887762712772  0.2024680802557057   F   F   F
  0.8876787009832796  0.0674224315737746  0.7036438234778757   F   F   F
  0.4009238364882890  0.1389598078719700  0.6318784427855633   F   F   F
  0.0956448214491914  0.6395518948247911  0.1320444018320046   F   F   F
  0.4009991845856007  0.3609269989866561  0.6317812748161202   F   F   F
  0.0957357285135814  0.8600851275062382  0.1318405238713964   F   F   F
  0.5991040324171877  0.8617728662605941  0.3689074636145264   F   F   F
  0.9019290341474147  0.3610054489888483  0.8686161171431053   F   F   F
  0.5989500620312853  0.6387359020791834  0.3687463727950799   F   F   F
  0.9020656738071011  0.1389873215714914  0.8685910012129341   F   F   F
  0.4058668461075001  0.0047035681587460  0.6214123658068331   F   F   F
  0.0952226543392456  0.5047544813128013  0.1226139929619734   F   F   F
  0.4060043687185839  0.4949865215930629  0.6218765235673516   F   F   F
  0.0951618399688954  0.9948458268257738  0.1224179594889989   F   F   F
  0.5949915186543109  0.9961495918426309  0.3757345576438524   F   F   F
  0.9063216031338612  0.4953823283580476  0.8779915705802352   F   F   F
  0.5949784864967711  0.5046073536858557  0.3755922688959572   F   F   F
  0.9063246335042976  0.0045903148351698  0.8777166645218202   F   F   F
  0.3240724880538437  0.0382431805837768  0.9636742190013621   F   F   F
  0.1763740492687944  0.5378244262404692  0.4641987787202027   F   F   F
  0.3241265099185995  0.4617893230082331  0.9638628934608917   F   F   F
  0.1761828383361319  0.9620343346283065  0.4641080295898732   F   F   F
  0.6769820999978151  0.9615829859951859  0.0359229037263304   F   F   F
  0.8239188863895492  0.4615643942807779  0.5361689788134996   F   F   F
  0.6769537679390183  0.5383878447423029  0.0359197672083127   F   F   F
  0.8238126630990266  0.0383763666485919  0.5362379500618459   F   F   F
  0.3212960623993482  0.9538239340354622  0.8074534402264888   F   F   F
  0.1776545342210198  0.4533443888147062  0.3068573264013850   F   F   F
  0.3213821406254809  0.5465621892188395  0.8072590993373367   F   F   F
  0.1777168280998822  0.0465312928356454  0.3068891187439320   F   F   F
  0.6783027348373736  0.0463392337289434  0.1930436967509550   F   F   F
  0.8217930187899185  0.5463755865776889  0.6930934385387317   F   F   F
  0.6783274238637276  0.4537945398546270  0.1931594700133132   F   F   F
  0.8217132272646523  0.9536052841537668  0.6930470164719438   F   F   F
  0.2564901149487255  0.0684404634643982  0.8019784684234708   F   F   F
  0.2450085342234871  0.5671864989804334  0.3031030070493657   F   F   F
  0.2564075970658166  0.4315614617770080  0.8019911177500205   F   F   F
  0.2451195380341957  0.9326786888488883  0.3033065722745434   F   F   F
  0.7443603947117765  0.9317114727000444  0.1984608184469749   F   F   F
  0.7561981700548870  0.4313826820753164  0.6984299057516736   F   F   F
  0.7444957926021800  0.5682866726279912  0.1982684126366436   F   F   F
  0.7561025779291413  0.0686771662286887  0.6983720940606091   F   F   F
  0.2923372261504227  0.1261284777030127  0.1042338069233466   F   F   F
  0.2082247171979574  0.6259172764723857  0.6046990688509695   F   F   F
  0.2924431839111037  0.3738320579969496  0.1043915698936004   F   F   F
  0.2078976169696816  0.8739631829226724  0.6045195409071979   F   F   F
  0.7093638136750542  0.8738449233251018  0.8949675971268363   F   F   F
  0.7920455779776887  0.3742381808329611  0.3956926881866707   F   F   F
  0.7094696314988767  0.6262575922186286  0.8952051702661592   F   F   F
  0.7918544918310815  0.1259410174050046  0.3953995434986268   F   F   F
  0.2010738462838901  0.0429255841972989  0.0293547120779962   F   F   F
  0.2995906474175882  0.5425316431913600  0.5296389175718303   F   F   F
  0.2011271769453273  0.4572129755529275  0.0295174238062330   F   F   F
  0.2993944404186735  0.9571155309882471  0.5292848211842127   F   F   F
  0.7999209499854913  0.9578313049764944  0.9699679314758924   F   F   F
  0.7005578302315953  0.4572267677319104  0.4705761440072465   F   F   F
  0.7999495641019791  0.5422524731584843  0.9702620235950619   F   F   F
  0.7004906071046051  0.0425200020205168  0.4703162419204858   F   F   F
  0.2957005984007210  0.9960564567134824  0.1459475185225543   F   F   F
  0.2041438479395339  0.4966368335748470  0.6473051412736623   F   F   F
  0.2965845795825928  0.5035486316664901  0.1467867314166682   F   F   F
  0.2042317045191453  0.0033163337692130  0.6470299099863510   F   F   F
  0.7035496385922073  0.0031135081744011  0.8525340649481166   F   F   F
  0.7965734320491933  0.5037758824707410  0.3536896800323319   F   F   F
  0.7037292741908630  0.4969793175258346  0.8526466222578222   F   F   F
  0.7965956531363361  0.9958964305768987  0.3539447599680869   F   F   F
  0.1092847177373457  0.1272695075612873  0.0964365835973027   F   F   F
  0.3897594579226578  0.6266409649561382  0.6012204216686072   F   F   F
  0.1095667955238966  0.3726955580326177  0.0968099838779750   F   F   F
  0.3895334907590779  0.8727600049753974  0.5998935210547458   F   F   F
  0.8911629755791992  0.8726824112824616  0.9028875340980065   F   F   F
  0.6094463353481103  0.3724903791514365  0.4041030939705479   F   F   F
  0.8911989268450498  0.6273290967702465  0.9031398329918332   F   F   F
  0.6093415448720165  0.1277301125548220  0.4036984695859047   F   F   F
  0.0831158064522981  0.0475367638911592  0.9436355226161766   F   F   F
  0.4175882707272365  0.5502961407057754  0.4441746667483315   F   F   F
  0.0832063262804468  0.4523622728011674  0.9439078800986493   F   F   F
  0.4169741170918755  0.9497467445163537  0.4433686057005630   F   F   F
  0.9178327685158294  0.9514932889471481  0.0562391910631419   F   F   F
  0.5828820438939957  0.4530521083333170  0.5552479485526902   F   F   F
  0.9178643202002874  0.5485512162663468  0.0564496230948777   F   F   F
  0.5826457122078494  0.0467943565332689  0.5552236094038676   F   F   F
  0.1297145275915881  0.0800050355645965  0.7634065445141545   F   F   F
  0.3713121320885051  0.5804404034714210  0.2619748156924615   F   F   F
  0.1296409355755301  0.4200077439580880  0.7637070015600713   F   F   F
  0.3714705918379835  0.9201899802801279  0.2596975192474247   F   F   F
  0.8710462529220280  0.9197471425771653  0.2361617265406011   F   F   F
  0.6292983552610991  0.4206555827942253  0.7355818942844010   F   F   F
  0.8710782747619064  0.5802513281732686  0.2365109934411436   F   F   F
  0.6293134552435262  0.0794738782718127  0.7352184972435154   F   F   F
  0.0749490816724006  0.9606980466005908  0.7921771599558767   F   F   F
  0.4241955452352073  0.4615971236102041  0.2948009981156190   F   F   F
  0.0749158768631659  0.5391776666034502  0.7922537657882955   F   F   F
  0.4242927418053242  0.0382811526582927  0.2945038415690249   F   F   F
  0.9247673447148230  0.0392227955014448  0.2066856333729277   F   F   F
  0.5726974284903150  0.5395890608823279  0.7067219398679256   F   F   F
  0.9246409451017144  0.4607068455758068  0.2067302642590931   F   F   F
  0.5726913995345555  0.9602663244670353  0.7072520217357763   F   F   F
  0.2161956722680145  0.1373791680397147  0.6463494485988264   F   F   F
  0.2822758441129807  0.6378926685848896  0.1480188893749173   F   F   F
  0.2161901003673066  0.3626026539578717  0.6463219347924749   F   F   F
  0.2814842762776948  0.8618829891547151  0.1477638395648881   F   F   F
  0.7855761076535330  0.8615105275745663  0.3528093417706302   F   F   F
  0.7150499600200177  0.3628293447158555  0.8534587065964274   F   F   F
  0.7853600517093113  0.6382188439919290  0.3530528761724909   F   F   F
  0.7148520591375558  0.1373352236586030  0.8533593488964826   F   F   F
  0.4969773173860190  0.8512333803358061  0.7139765648374095   F   F   F
  0.0036625558868408  0.3545673123447060  0.2132758682357974   F   F   F
  0.4971129231471636  0.6489212297379581  0.7146463086044434   F   F   F
  0.0035812025119881  0.1455699739030081  0.2132060861462222   F   F   F
  0.5035920090095019  0.1445697125949081  0.2864550886994408   F   F   F
  0.9966197027686192  0.6460630410072241  0.7845927799043011   F   F   F
  0.5037230350719071  0.3554797844124522  0.2864806700955285   F   F   F
  0.9965308604589325  0.8539372674849730  0.7841046543404246   F   F   F
  0.3803119702137820  0.8353405046621987  0.7919543379198615   F   F   F
  0.1209869427317685  0.3338268404653348  0.2872167123642768   F   F   F
  0.3802898998846089  0.6651901568123293  0.7924215446296330   F   F   F
  0.1209732786489468  0.1660093670964926  0.2870360137526262   F   F   F
  0.6210694059498252  0.1658366771729547  0.2130838078222155   F   F   F
  0.8796038141562832  0.6657935655001594  0.7125522741922907   F   F   F
  0.6211101646104922  0.3341932186091228  0.2131280067531378   F   F   F
  0.8794719018396151  0.8340850954428944  0.7124540232617562   F   F   F
  0.4196946382347946  0.7499824409611762  0.6511057721613582   F   F   F
  0.0746155441393412  0.2499958893002301  0.1492395937967288   F   F   F
  0.5738382492441758  0.2500235713713650  0.3499165347275266   F   F   F
  0.9254662442906607  0.7499966584828215  0.8507264242972852   F   F   F
  0.3151591982971667  0.8661010030629441  0.9565055032043759   F   F   F
  0.1831523223076204  0.3656218065654357  0.4547842910640938   F   F   F
  0.3152863871782188  0.6337931128058472  0.9567775563867045   F   F   F
  0.1830826412983981  0.1344961153780417  0.4546657396012321   F   F   F
  0.6830332872185352  0.1344316920881283  0.0453355799460695   F   F   F
  0.8190156674344351  0.6342829916287798  0.5446675438295046   F   F   F
  0.6830624303355037  0.3655736641163330  0.0455302878832597   F   F   F
  0.8190908043512763  0.8657411229756278  0.5445683062772204   F   F   F
  0.2500196990791466  0.8428656538871380  0.7881803387997550   F   F   F
  0.2514284082780307  0.3438650459867389  0.2887502280298122   F   F   F
  0.2498902966264822  0.6572808858172010  0.7886234449821856   F   F   F
  0.2513407976723201  0.1561962681992881  0.2887004106862037   F   F   F
  0.7513532475236460  0.1563133168799240  0.2106957115103398   F   F   F
  0.7496231837621039  0.6566700162329795  0.7099719933977013   F   F   F
  0.7513430828381615  0.3437491544734712  0.2108009591970443   F   F   F
  0.7495016641952290  0.8433630468956537  0.7098046012312054   F   F   F
  0.2873174633412674  0.7500067132997259  0.0458310193737432   F   F   F
  0.2037341210573018  0.2499503014878925  0.5473316272092248   F   F   F
  0.7036163900175865  0.2500477734500564  0.9524523938023606   F   F   F
  0.7924284937487940  0.7499446811166948  0.4554364331374430   F   F   F
  0.1930147253991521  0.8369607013776701  0.0047893009677011   F   F   F
  0.3040922154818091  0.3321189427230067  0.5063298781910035   F   F   F
  0.1933128824974730  0.6627697888606363  0.0059630418780259   F   F   F
  0.3040536362565689  0.1679365249701945  0.5061436805440422   F   F   F
  0.8036873090047436  0.1675508210305807  0.9919434331535086   F   F   F
  0.6969123910413231  0.6614856950672703  0.4951365230756792   F   F   F
  0.8037257471131412  0.3323788505925407  0.9923262440185212   F   F   F
  0.6971230090431249  0.8386967485696459  0.4949812811563419   F   F   F
  0.0931750580517274  0.7497790641820430  0.0214579019155110   F   F   F
  0.4070809662961707  0.2499382619285839  0.5234583374424133   F   F   F
  0.9068217999753330  0.2499682150376970  0.9771714325814784   F   F   F
  0.5995687372926568  0.7502053535623716  0.4777875153561908   F   F   F
  0.0770777603127613  0.8694898488277545  0.9360705318185651   F   F   F
  0.4196908900402505  0.3691300013869281  0.4361608331743128   F   F   F
  0.0776199359620051  0.6301429275517876  0.9361008837660094   F   F   F
  0.4196630054798831  0.1308097921291775  0.4361014114186545   F   F   F
  0.9187849858525965  0.1307559367288604  0.0643845595126749   F   F   F
  0.5795122139421665  0.6317522258286488  0.5643834196832600   F   F   F
  0.9189508494128376  0.3691900377686395  0.0643927114294200   F   F   F
  0.5798162596705083  0.8686693356671498  0.5643079512061462   F   F   F
  0.1228858767849417  0.8402876488950284  0.7512413684469124   F   F   F
  0.3782915750810076  0.3406065445696314  0.2497152053962637   F   F   F
  0.1228753667526377  0.6594978180124329  0.7509594228334322   F   F   F
  0.3782087698908967  0.1593810622123755  0.2496996865449432   F   F   F
  0.8780433584095206  0.1597497784012418  0.2513479687222926   F   F   F
  0.6230307394316483  0.6587815117331317  0.7506231643496335   F   F   F
  0.8780667981676373  0.3400598264388890  0.2512903919760348   F   F   F
  0.6229074187125931  0.8409740330032491  0.7505260556993179   F   F   F
  0.2005869833835732  0.7499605188697558  0.6667856023140999   F   F   F
  0.2996497379047653  0.2499585545326113  0.1676934308680202   F   F   F
  0.7990893847625244  0.2500657607296262  0.3330337656731146   F   F   F
  0.7012952913593580  0.7499918970157538  0.8318644237971284   F   F   F
  0.4244144502679745  0.0709328919723902  0.6884342446770191   F   F   F
  0.0757382753279146  0.5703384078425557  0.1892426012757369   F   F   F
  0.4242738388491532  0.4293839700422950  0.6883741236183738   F   F   F
  0.0757633257951227  0.9293112886101369  0.1890304758753985   F   F   F
  0.5761202681558473  0.9297490396741352  0.3108541988309028   F   F   F
  0.9246623890482581  0.4294605934360689  0.8116026174288109   F   F   F
  0.5762836134736844  0.5706172161981229  0.3105785402415151   F   F   F
  0.9245727812692053  0.0705429572556611  0.8114048440325377   F   F   F
  0.3223721510121393  0.0323588289591754  0.8431128892612989   F   F   F
  0.1782351773861777  0.5316702417113319  0.3432637593837953   F   F   F
  0.3224006148719027  0.4681806502900514  0.8429182406141393   F   F   F
  0.1782184563033695  0.9682116702802688  0.3432128457425776   F   F   F
  0.6781981638686005  0.9680484864815568  0.1568498307859372   F   F   F
  0.8223930710827219  0.4680633483710963  0.6573060965387967   F   F   F
  0.6782246830475245  0.5320252228609519  0.1568723303151600   F   F   F
  0.8222303558787516  0.0318439725345669  0.6570416580402423   F   F   F
  0.2777667997513475  0.0512567351623190  0.0613168962206601   F   F   F
  0.2226097877489082  0.5509526747905369  0.5614484628650018   F   F   F
  0.2779967170634166  0.4490015996293337  0.0615142333487739   F   F   F
  0.2224924681068075  0.9489226047794546  0.5612944981582260   F   F   F
  0.7229050287351413  0.9489422858196406  0.9382308647455631   F   F   F
  0.7779906859577963  0.4490919484770757  0.4388456474077387   F   F   F
  0.7229552699429931  0.5511413147356166  0.9384256224385226   F   F   F
  0.7777849023914385  0.0507479647519204  0.4387528614933345   F   F   F
  0.1223557950635410  0.0532728423856526  0.0485002562997892   F   F   F
  0.3779091269047825  0.5535753497843601  0.5487790395526417   F   F   F
  0.1225520230060226  0.4467520249824659  0.0487282881509472   F   F   F
  0.3777450518542054  0.9463145110070954  0.5482681889303791   F   F   F
  0.8783216919947776  0.9465494309238736  0.9514917479704792   F   F   F
  0.6226995250349603  0.4460908130112458  0.4518395404307824   F   F   F
  0.8783260691013410  0.5534634585670020  0.9517190440214307   F   F   F
  0.6225148303448762  0.0535231517380197  0.4511649620183107   F   F   F
  0.0727775060407581  0.0396546619185045  0.8238404294092163   F   F   F
  0.4275991394596730  0.5409596234247758  0.3243054635174900   F   F   F
  0.0728698354462836  0.4602906105370792  0.8241567844744608   F   F   F
  0.4274275887498860  0.9589604115149442  0.3236995786410048   F   F   F
  0.9275904981000878  0.9602228057549667  0.1759188554809512   F   F   F
  0.5722278043338775  0.4603467096164451  0.6756708365849562   F   F   F
  0.9275273055795168  0.5397390382534510  0.1761366395098918   F   F   F
  0.5722923359088838  0.0391883984765258  0.6753374239907046   F   F   F
  0.2015140085128877  0.0714929359595615  0.7133764282045547   F   F   F
  0.2989775381396598  0.5716229147474436  0.2139360742589105   F   F   F
  0.2015604835944060  0.4286433652522135  0.7135507103768930   F   F   F
  0.2985268583627416  0.9283654485959261  0.2134357869820036   F   F   F
  0.7991578003374684  0.9280509906593721  0.2864631489108405   F   F   F
  0.7013391394496722  0.4287792671787969  0.7861902832093364   F   F   F
  0.7991063902298805  0.5717566378085124  0.2865514739400226   F   F   F
  0.7012035082219015  0.0712440051451182  0.7858499242321386   F   F   F
  0.4223902474805641  0.8282381197843520  0.6893378730204347   F   F   F
  0.0769171874634083  0.3280591715669061  0.1860088513352167   F   F   F
  0.4225103553295000  0.6718004488122418  0.6898112975553872   F   F   F
  0.0767617134961611  0.1720017578003308  0.1858655821861390   F   F   F
  0.5767732223683026  0.1718586971173366  0.3139965607989623   F   F   F
  0.9234882611291511  0.6720729589081529  0.8137118582437992   F   F   F
  0.5766846873767051  0.3280382534617843  0.3139605974197863   F   F   F
  0.9234687343767263  0.8278654286744427  0.8134975019004784   F   F   F
  0.3165245325295629  0.8747157071456471  0.8357580375307947   F   F   F
  0.1832282282540518  0.3742234097576258  0.3339194264274639   F   F   F
  0.3165518464082879  0.6256948767602211  0.8360507728899620   F   F   F
  0.1831835611275352  0.1258892743839510  0.3338679296344154   F   F   F
  0.6835202846644606  0.1260002836860323  0.1659680204948089   F   F   F
  0.8174814482555846  0.6257860460155413  0.6653930327979509   F   F   F
  0.6835200969749522  0.3739842683188073  0.1659931960676104   F   F   F
  0.8174228152197927  0.8741769594358999  0.6653232082697116   F   F   F
  0.2691210150155854  0.8287912695213251  0.0389164723467417   F   F   F
  0.2270693439055691  0.3276722730126380  0.5390711766741845   F   F   F
  0.2695436422938471  0.6711261714350840  0.0395871175821725   F   F   F
  0.2270408187378834  0.1725157632604208  0.5388990603872799   F   F   F
  0.7268052545894079  0.1723570227845954  0.9604023340292329   F   F   F
  0.7731074502900128  0.6712364868786693  0.4615858118060316   F   F   F
  0.7269074992666589  0.3276056335971731  0.9606514617255044   F   F   F
  0.7732723128072365  0.8286753055249960  0.4614687241411559   F   F   F
  0.1147176455987733  0.8284900203908663  0.0239791610633731   F   F   F
  0.3826797542870821  0.3278358773607977  0.5247169101550213   F   F   F
  0.1149665908939639  0.6711242787020808  0.0243194271945484   F   F   F
  0.3826721914710589  0.1722167207303329  0.5246297886476015   F   F   F
  0.8827287487958841  0.1720340153218132  0.9752511134343109   F   F   F
  0.6186001625657553  0.6709097975178082  0.4758826339757292   F   F   F
  0.8827684159873996  0.3279364657005814  0.9753770117088081   F   F   F
  0.6188449529029114  0.8294053402180666  0.4758643479966338   F   F   F
  0.0685776194904761  0.8809972874874319  0.8162278563890411   F   F   F
  0.4309762565037332  0.3812434717359707  0.3172312778612465   F   F   F
  0.0686807076417395  0.6188735251959869  0.8163227907590880   F   F   F
  0.4310537114115860  0.1188513637259447  0.3171539861111867   F   F   F
  0.9308125557728104  0.1189287416962301  0.1834668500544581   F   F   F
  0.5687749677938143  0.6196097756087013  0.6836194023265918   F   F   F
  0.9309146100491077  0.3810279223472435  0.1834703332811145   F   F   F
  0.5687704151384807  0.8802928766442335  0.6835321141622543   F   F   F
  0.1951579123238716  0.8277197431190189  0.7027684862812009   F   F   F
  0.3054272718708688  0.3279347014347493  0.2027661300320531   F   F   F
  0.1951994804590811  0.6722228091043121  0.7028313220108444   F   F   F
  0.3054228264838983  0.1721807258953660  0.2027640146475704   F   F   F
  0.8052200694240739  0.1721471416540510  0.2976766302689242   F   F   F
  0.6957624671020568  0.6720967184338988  0.7968033325870749   F   F   F
  0.8053128063377386  0.3277053400113061  0.2975865054192823   F   F   F
  0.6956999980678304  0.8278286977145086  0.7967110357560472   F   F   F
  0.3709033220294771  0.7586135950593942  0.2675042903932550   F   F   F
  0.3884355383727396  0.7517838084787840  0.4411912924749544   F   F   F
  0.4849655799969170  0.7509118664579688  0.3977095613072805   T   T   T
  0.4701049363186414  0.7499088883359022  0.2310611381630068   T   T   T
  0.4728279730855505  0.7787523621952772  0.4663882628072216   T   T   T
  0.4962401546019635  0.6982946822547120  0.4295261699599990   T   T   T
  0.5302051405032486  0.7711764764168052  0.3649755892836453   T   T   T
  0.4443384957987888  0.7875776320589196  0.1850038409152646   T   T   T
  0.5229677735003619  0.7613314632125139  0.2287646886179360   T   T   T
  0.4619880792355602  0.6992910919025093  0.1975525549158760   T   T   T
 
  0.00000000E+00  0.00000000E+00  0.00000000E+00
  0.00000000E+00  0.00000000E+00  0.00000000E+00
  0.00000000E+00  0.00000000E+00  0.00000000E+00
  0.00000000E+00  0.00000000E+00  0.00000000E+00
  0.00000000E+00  0.00000000E+00  0.00000000E+00
  0.00000000E+00  0.00000000E+00  0.00000000E+00
  0.00000000E+00  0.00000000E+00  0.00000000E+00
  0.00000000E+00  0.00000000E+00  0.00000000E+00
  0.00000000E+00  0.00000000E+00  0.00000000E+00
  0.00000000E+00  0.00000000E+00  0.00000000E+00
  0.00000000E+00  0.00000000E+00  0.00000000E+00
  0.00000000E+00  0.00000000E+00  0.00000000E+00
  0.00000000E+00  0.00000000E+00  0.00000000E+00
  0.00000000E+00  0.00000000E+00  0.00000000E+00
  0.00000000E+00  0.00000000E+00  0.00000000E+00
  0.00000000E+00  0.00000000E+00  0.00000000E+00
  0.00000000E+00  0.00000000E+00  0.00000000E+00
  0.00000000E+00  0.00000000E+00  0.00000000E+00
  0.00000000E+00  0.00000000E+00  0.00000000E+00
  0.00000000E+00  0.00000000E+00  0.00000000E+00
  0.00000000E+00  0.00000000E+00  0.00000000E+00
  0.00000000E+00  0.00000000E+00  0.00000000E+00
  0.00000000E+00  0.00000000E+00  0.00000000E+00
  0.00000000E+00  0.00000000E+00  0.00000000E+00
  0.00000000E+00  0.00000000E+00  0.00000000E+00
  0.00000000E+00  0.00000000E+00  0.00000000E+00
  0.00000000E+00  0.00000000E+00  0.00000000E+00
  0.00000000E+00  0.00000000E+00  0.00000000E+00
  0.00000000E+00  0.00000000E+00  0.00000000E+00
  0.00000000E+00  0.00000000E+00  0.00000000E+00
  0.00000000E+00  0.00000000E+00  0.00000000E+00
  0.00000000E+00  0.00000000E+00  0.00000000E+00
  0.00000000E+00  0.00000000E+00  0.00000000E+00
  0.00000000E+00  0.00000000E+00  0.00000000E+00
  0.00000000E+00  0.00000000E+00  0.00000000E+00
  0.00000000E+00  0.00000000E+00  0.00000000E+00
  0.00000000E+00  0.00000000E+00  0.00000000E+00
  0.00000000E+00  0.00000000E+00  0.00000000E+00
  0.00000000E+00  0.00000000E+00  0.00000000E+00
  0.00000000E+00  0.00000000E+00  0.00000000E+00
  0.00000000E+00  0.00000000E+00  0.00000000E+00
  0.00000000E+00  0.00000000E+00  0.00000000E+00
  0.00000000E+00  0.00000000E+00  0.00000000E+00
  0.00000000E+00  0.00000000E+00  0.00000000E+00
  0.00000000E+00  0.00000000E+00  0.00000000E+00
  0.00000000E+00  0.00000000E+00  0.00000000E+00
  0.00000000E+00  0.00000000E+00  0.00000000E+00
  0.00000000E+00  0.00000000E+00  0.00000000E+00
  0.00000000E+00  0.00000000E+00  0.00000000E+00
  0.00000000E+00  0.00000000E+00  0.00000000E+00
  0.00000000E+00  0.00000000E+00  0.00000000E+00
  0.00000000E+00  0.00000000E+00  0.00000000E+00
  0.00000000E+00  0.00000000E+00  0.00000000E+00
  0.00000000E+00  0.00000000E+00  0.00000000E+00
  0.00000000E+00  0.00000000E+00  0.00000000E+00
  0.00000000E+00  0.00000000E+00  0.00000000E+00
  0.00000000E+00  0.00000000E+00  0.00000000E+00
  0.00000000E+00  0.00000000E+00  0.00000000E+00
  0.00000000E+00  0.00000000E+00  0.00000000E+00
  0.00000000E+00  0.00000000E+00  0.00000000E+00
  0.00000000E+00  0.00000000E+00  0.00000000E+00
  0.00000000E+00  0.00000000E+00  0.00000000E+00
  0.00000000E+00  0.00000000E+00  0.00000000E+00
  0.00000000E+00  0.00000000E+00  0.00000000E+00
  0.00000000E+00  0.00000000E+00  0.00000000E+00
  0.00000000E+00  0.00000000E+00  0.00000000E+00
  0.00000000E+00  0.00000000E+00  0.00000000E+00
  0.00000000E+00  0.00000000E+00  0.00000000E+00
  0.00000000E+00  0.00000000E+00  0.00000000E+00
  0.00000000E+00  0.00000000E+00  0.00000000E+00
  0.00000000E+00  0.00000000E+00  0.00000000E+00
  0.00000000E+00  0.00000000E+00  0.00000000E+00
  0.00000000E+00  0.00000000E+00  0.00000000E+00
  0.00000000E+00  0.00000000E+00  0.00000000E+00
  0.00000000E+00  0.00000000E+00  0.00000000E+00
  0.00000000E+00  0.00000000E+00  0.00000000E+00
  0.00000000E+00  0.00000000E+00  0.00000000E+00
  0.00000000E+00  0.00000000E+00  0.00000000E+00
  0.00000000E+00  0.00000000E+00  0.00000000E+00
  0.00000000E+00  0.00000000E+00  0.00000000E+00
  0.00000000E+00  0.00000000E+00  0.00000000E+00
  0.00000000E+00  0.00000000E+00  0.00000000E+00
  0.00000000E+00  0.00000000E+00  0.00000000E+00
  0.00000000E+00  0.00000000E+00  0.00000000E+00
  0.00000000E+00  0.00000000E+00  0.00000000E+00
  0.00000000E+00  0.00000000E+00  0.00000000E+00
  0.00000000E+00  0.00000000E+00  0.00000000E+00
  0.00000000E+00  0.00000000E+00  0.00000000E+00
  0.00000000E+00  0.00000000E+00  0.00000000E+00
  0.00000000E+00  0.00000000E+00  0.00000000E+00
  0.00000000E+00  0.00000000E+00  0.00000000E+00
  0.00000000E+00  0.00000000E+00  0.00000000E+00
  0.00000000E+00  0.00000000E+00  0.00000000E+00
  0.00000000E+00  0.00000000E+00  0.00000000E+00
  0.00000000E+00  0.00000000E+00  0.00000000E+00
  0.00000000E+00  0.00000000E+00  0.00000000E+00
  0.00000000E+00  0.00000000E+00  0.00000000E+00
  0.00000000E+00  0.00000000E+00  0.00000000E+00
  0.00000000E+00  0.00000000E+00  0.00000000E+00
  0.00000000E+00  0.00000000E+00  0.00000000E+00
  0.00000000E+00  0.00000000E+00  0.00000000E+00
  0.00000000E+00  0.00000000E+00  0.00000000E+00
  0.00000000E+00  0.00000000E+00  0.00000000E+00
  0.00000000E+00  0.00000000E+00  0.00000000E+00
  0.00000000E+00  0.00000000E+00  0.00000000E+00
  0.00000000E+00  0.00000000E+00  0.00000000E+00
  0.00000000E+00  0.00000000E+00  0.00000000E+00
  0.00000000E+00  0.00000000E+00  0.00000000E+00
  0.00000000E+00  0.00000000E+00  0.00000000E+00
  0.00000000E+00  0.00000000E+00  0.00000000E+00
  0.00000000E+00  0.00000000E+00  0.00000000E+00
  0.00000000E+00  0.00000000E+00  0.00000000E+00
  0.00000000E+00  0.00000000E+00  0.00000000E+00
  0.00000000E+00  0.00000000E+00  0.00000000E+00
  0.00000000E+00  0.00000000E+00  0.00000000E+00
  0.00000000E+00  0.00000000E+00  0.00000000E+00
  0.00000000E+00  0.00000000E+00  0.00000000E+00
  0.00000000E+00  0.00000000E+00  0.00000000E+00
  0.00000000E+00  0.00000000E+00  0.00000000E+00
  0.00000000E+00  0.00000000E+00  0.00000000E+00
  0.00000000E+00  0.00000000E+00  0.00000000E+00
  0.00000000E+00  0.00000000E+00  0.00000000E+00
  0.00000000E+00  0.00000000E+00  0.00000000E+00
  0.00000000E+00  0.00000000E+00  0.00000000E+00
  0.00000000E+00  0.00000000E+00  0.00000000E+00
  0.00000000E+00  0.00000000E+00  0.00000000E+00
  0.00000000E+00  0.00000000E+00  0.00000000E+00
  0.00000000E+00  0.00000000E+00  0.00000000E+00
  0.00000000E+00  0.00000000E+00  0.00000000E+00
  0.00000000E+00  0.00000000E+00  0.00000000E+00
  0.00000000E+00  0.00000000E+00  0.00000000E+00
  0.00000000E+00  0.00000000E+00  0.00000000E+00
  0.00000000E+00  0.00000000E+00  0.00000000E+00
  0.00000000E+00  0.00000000E+00  0.00000000E+00
  0.00000000E+00  0.00000000E+00  0.00000000E+00
  0.00000000E+00  0.00000000E+00  0.00000000E+00
  0.00000000E+00  0.00000000E+00  0.00000000E+00
  0.00000000E+00  0.00000000E+00  0.00000000E+00
  0.00000000E+00  0.00000000E+00  0.00000000E+00
  0.00000000E+00  0.00000000E+00  0.00000000E+00
  0.00000000E+00  0.00000000E+00  0.00000000E+00
  0.00000000E+00  0.00000000E+00  0.00000000E+00
  0.00000000E+00  0.00000000E+00  0.00000000E+00
  0.00000000E+00  0.00000000E+00  0.00000000E+00
  0.00000000E+00  0.00000000E+00  0.00000000E+00
  0.00000000E+00  0.00000000E+00  0.00000000E+00
  0.00000000E+00  0.00000000E+00  0.00000000E+00
  0.00000000E+00  0.00000000E+00  0.00000000E+00
  0.00000000E+00  0.00000000E+00  0.00000000E+00
  0.00000000E+00  0.00000000E+00  0.00000000E+00
  0.00000000E+00  0.00000000E+00  0.00000000E+00
  0.00000000E+00  0.00000000E+00  0.00000000E+00
  0.00000000E+00  0.00000000E+00  0.00000000E+00
  0.00000000E+00  0.00000000E+00  0.00000000E+00
  0.00000000E+00  0.00000000E+00  0.00000000E+00
  0.00000000E+00  0.00000000E+00  0.00000000E+00
  0.00000000E+00  0.00000000E+00  0.00000000E+00
  0.00000000E+00  0.00000000E+00  0.00000000E+00
  0.00000000E+00  0.00000000E+00  0.00000000E+00
  0.00000000E+00  0.00000000E+00  0.00000000E+00
  0.00000000E+00  0.00000000E+00  0.00000000E+00