O  Si Ru C  H 
 1.0000000000000000
    20.3096463179830877    0.0000000000000000    0.0000000000000000
     0.0000000000000000   19.8625212307842212    0.0000000000000000
     0.0000000000000000    0.0000000000000000   13.3711533343531652
 O   Si  Ru  C   H  
 192  96   2   2   2
Selective dynamics
Cartesian
 10.2478083965585878  1.4359447243749637  9.4331937166536424   F   F   F
 20.2831017366688151 11.2946887941881382  2.7879801206590362   T   T   T
 10.2510339369452943  8.4961322250236950  9.4370040231577139   T   T   T
 20.2804826965722107 18.4966651938170799  2.7891149138847964   T   T   T
 10.0927856898475241 18.4099498924385792  3.8854255470589121   T   T   T
  0.0911914392132922  8.5035238032164120 10.5508849897865371   T   T   T
 10.0931525230307990 11.3816637754105727  3.8845676159351719   T   T   T
  0.0904535631917746  1.4271261242644899 10.5459300939125384   F   F   F
  7.9412750713946165  1.2535500437949378 10.6762351604441132   F   F   F
  2.3205119967545262 11.3198533690863776  3.9777094149763061   T   T   T
  7.9424545394847152  8.6771193051258440 10.6749786693227176   T   T   T
  2.3175946163980159 18.4793688915127987  3.9794111327762001   T   T   T
 12.4248395352595793 18.5192214392600185  2.6784519849263977   T   T   T
 18.0635197547090165  8.6136560669988693  9.3468650441793795   T   T   T
 12.4256054154689082 11.2805825898400016  2.6787516874420576   T   T   T
 18.0617880266109339  1.3172433046198315  9.3455695464187620   F   F   F
  8.1373794163813358  2.7327787672248021  8.4946806746142709   F   F   F
  1.9599988049793100 12.7217552313227014  1.7742774085427109   T   T   T
  8.1426636737929741  7.1987414108324703  8.4940537263264435   F   F   F
  1.9632485560621744 17.0757522161281479  1.7767024688962130   T   T   T
 12.1311212553026149 17.0666734556954331  4.8792279002681331   T   T   T
 18.3336373356133926  7.2059198787794569 11.5700410116303978   F   F   F
 12.1281553185072344 12.7274913179529765  4.8806809158702924   T   T   T
 18.3335320415487217  2.7242080712420496 11.5676839333074550   F   F   F
  8.2726199034431698  0.0763460495395358  8.3011319240467625   F   F   F
  2.0348777455894265 10.0616145287371452  1.6425308694467091   T   T   T
  8.2777389308423057  9.8551201069137484  8.3000241512919253   T   T   T
  2.0282194645562721 19.7350880833408802  1.6427974907211840   T   T   T
 12.0933076790183769 19.7362335892115830  5.0217175315900580   T   T   T
 18.4133047023543064  9.8767815944569399 11.6545533047874539   T   T   T
 12.0961761699538037 10.0569371799059901  5.0206454339420761   T   T   T
 18.4152530496574478  0.0530659587532927 11.6534628680369092   F   F   F
  6.5966628567137136  0.7762524560860462 12.9057951956350827   F   F   F
  3.5636468349508363 10.6920570602925071  6.2393938159496791   T   T   T
  6.6010657036206881  9.1542417706684631 12.9041097150054913   T   T   T
  3.5622128288948569 19.1008347949315613  6.2399277306049514   T   T   T
 13.7861072586099294 19.0488831230283004  0.4722059202978268   T   T   T
 16.7391787732042410  9.1935868986173137  7.1352539995928339   T   T   T
 13.7845911069289819 10.7505308518260847  0.4712737933357179   T   T   T
 16.7382510117269874  0.7397160717595052  7.1349122791249782   F   F   F
  6.4982980086646940 18.9152667380145125 10.8512990217430296   T   T   T
  3.5598263238512606  9.0139835141949014  4.1342874542566399   T   T   T
  6.4997918430852604 10.8785703766482040 10.8506763841512441   T   T   T
  3.5696048148415715  0.9166872204947016  4.1349578579998330   F   F   F
 13.8514754946753307  0.8809292639678742  2.5501034711207526   F   F   F
 16.6993751526077929 10.8716411210850215  9.2366551975123734   T   T   T
 13.8496713593340193  9.0563019477002289  2.5496114533695677   F   F   F
 16.6984339662416659 18.9228536549336042  9.2357539768584260   T   T   T
  5.2774242269529346  1.3809340359522826 10.6989592424936895   F   F   F
  4.9933454730251681 11.2344295001754979  4.1061303831752625   T   T   T
  5.2776625395825150  8.5502406848941686 10.6991853562854669   T   T   T
  4.9913249725428752 18.5530566013470697  4.1061466428277349   T   T   T
 15.0830391529988486 18.4098267384165482  2.6877583490366996   T   T   T
 15.3972607880529235  8.5777064980427262  9.3257045074801006   T   T   T
 15.0860459922196153 11.3860978791711052  2.6844549680079171   T   T   T
 15.3953288972125808  1.3555039733914409  9.3247369565177340   F   F   F
  5.9282492189536011  2.5283428695936809  1.3977888548998558   F   F   F
  4.2484815752577605 12.4224233190439968  8.1127571803806102   T   T   T
  5.9362062898617891  7.4009136110312843  1.3948814482736878   F   F   F
  4.2478630037080345 17.3723022904396736  8.1143568107812829   T   T   T
 14.4491076843927111 17.3761638677308774 11.9135316140585079   T   T   T
 16.1159691459062735  7.4611174140358250  5.2391125627356221   F   F   F
 14.4527601471727039 12.4213229934239724 11.9139252445061761   T   T   T
 16.1113002477587060  2.4708766382715099  5.2363346180293266   F   F   F
  4.0698016284283627  0.9271511264655563  0.3057538570776600   F   F   F
  6.0756522777157116 10.7463250098845986  7.1140186631442299   T   T   T
  4.0750829501355010  9.0027935963286261  0.3082606653391040   F   F   F
  6.0745932332049355 19.0452536233942560  7.1114361002481683   T   T   T
 16.2918941734014560 19.0052092691579411 12.9798400048313951   T   T   T
 14.2485464944474014  9.0914419648386762  6.2445838505494837   T   T   T
 16.2921903720377941 10.7905490222619065 12.9822469862024441   T   T   T
 14.2472395311591100  0.8381916142144673  6.2432544679141468   F   F   F
  5.9068037420027180 19.8207586959553055  1.9584377148170977   T   T   T
  4.1209010967907895  9.8509423601789532  8.6808260914344100   T   T   T
  5.9143704510950723  9.9708681008759559  1.9582509206443734   T   T   T
  4.1217206059407259  0.0819145381213764  8.6795941633839711   F   F   F
 14.3514909794340415  0.1057988903380624 11.4305677026758961   F   F   F
 16.1930920993036089 10.0471029379287575  4.7001828291338530   T   T   T
 14.3522115293823926  9.8290242300669135 11.4317163239158663   T   T   T
 16.1961422619384052 19.7464103347807338  4.7006591472187100   T   T   T
  2.2035627834990308  2.5095061055053591  1.3258652624098137   F   F   F
  7.8925146838774936 12.4536241985520135  8.0557555827115070   T   T   T
  2.2100921630078538  7.4209206945107802  1.3307319420062675   F   F   F
  7.8931374790713225 17.3403635443172845  8.0550540676283138   T   T   T
 18.1466329866730334 17.3115448739230473 12.1063920357348529   T   T   T
 12.3973558807337305  7.4235617534624705  5.3283594566589034   F   F   F
 18.1486574555466618 12.4812344064164851 12.1054031796780581   T   T   T
 12.3968915391052015  2.5071007866034538  5.3233363530038762   F   F   F
  1.6191428994798909  0.9400135795142647 12.6513810445434807   F   F   F
  8.4401896296304457 10.9570024959489771  5.9227951558774565   T   T   T
  1.6238511854059940  8.9877431053238457 12.6545695917345871   T   T   T
  8.4407527124081145 18.8388682401247607  5.9240496397740579   T   T   T
 18.7227639446457950 18.9797197292646480  0.7009344910070953   T   T   T
 11.8614083235862324  8.9738542477968384  7.3957403014151151   T   T   T
 18.7246495305096836 10.8144018223815408  0.7005388010759338   T   T   T
 11.8596253741767175  0.9605997582499258  7.3931915606878409   F   F   F
  2.6803640259721120  1.6106260733702620 10.3014135267958498   F   F   F
  7.5423852442330244 11.4359088079782190  3.4350420176164511   T   T   T
  2.6805344126694823  8.3205375583775147 10.3019263446153637   T   T   T
  7.5414907196559158 18.3615190790123926  3.4358510408836458   T   T   T
 17.6946102708519284 18.2995267120817751  3.0497362701877231   T   T   T
 12.8180131483099320  8.3879720011057710  9.8155499942074176   T   T   T
 17.6975763866901517 11.4893630939467677  3.0510225431138709   T   T   T
 12.8141870716584556  1.5442895422849763  9.8130542202685707   F   F   F
  1.5871210716810138 19.0898833374535286 10.6017629279258596   T   T   T
  8.6926341298624497  9.1400206731832405  3.9958820557664074   T   T   T
  1.5879836777984033 10.7036476964787290 10.6072137748717115   T   T   T
  8.6962526721820446  0.7913049721555415  3.9957966485810772   F   F   F
 18.7779969183922297  0.8255660151632935  2.7469979983913997   F   F   F
 11.6838283108279448 10.7386863433927449  9.3833100675775221   T   T   T
 18.7816281410123835  9.1023323794352571  2.7444717784847832   F   F   F
 11.6819174980264506 19.0560869569697537  9.3805257899856667   T   T   T
  4.3701921507658525  2.7475203054541710  8.6659546279888549   F   F   F
  5.6818327935053343 12.6198661231645968  1.9963061743585355   T   T   T
  4.3704295950103278  7.1853776179521587  8.6656403226198098   F   F   F
  5.6860684561437029 17.1715335954170030  1.9971482326228234   T   T   T
 16.1182856053321224 17.0647663425417235  4.6972296296115870   T   T   T
 14.5388815609445192  7.1633326376999982 11.3611688150189796   F   F   F
 16.1208778722144039 12.7283829283394265  4.6955376023329318   T   T   T
 14.5306491340501864  2.7728544380160094 11.3576071245809516   F   F   F
 10.1110407650397498 16.9208954689360951  9.5281326991722519   T   T   T
  0.0519270852448838  6.9797477911598325  2.8545299604676018   F   F   F
 10.1096606348300195 12.8715816393545150  9.5294576415321597   T   T   T
  0.0453211124472758  2.9503348542964667  2.8520452533127210   F   F   F
 10.2014272342055374  2.9750668690935718  3.8547810407214977   F   F   F
 20.2720985961369209 12.7984117876401378 10.4947032132382247   T   T   T
 10.2054076907064992  6.9615310530180192  3.8549821194721425   F   F   F
 20.2729107993769304 16.9937294832725918 10.4992929873458873   T   T   T
  7.7667462432993055 16.5933026915425827 10.6170249062753683   T   T   T
  2.4293669323276084  6.6351143845328870  3.8781175691202878   F   F   F
  7.7649800120191257 13.2016489429969344 10.6173933382384647   T   T   T
  2.4236166224098752  3.2875982482097235  3.8764379695102118   F   F   F
 12.5551948718956385  3.1979058469841171  2.7495134327491146   F   F   F
 17.8832443544546287 13.2320274138760805  9.5550342466370726   T   T   T
 12.5626684582790134  6.7356347576866789  2.7543903073405578   F   F   F
 17.8851834172533657 16.5629685207197141  9.5553042334890801   T   T   T
  8.5512385266401960 14.8968228162163232  8.7323899257192679   T   T   T
  1.5718422647917356  4.9636571893972530  1.9982591975157722   F   F   F
 11.8107677718173054  4.9662184313916589  4.5989293001923075   F   F   F
 18.8737243720455723 14.8961880178075017 11.3733820918896207   T   T   T
  6.4207826042823903 17.1366752166213807 12.8143380840691563   T   T   T
  3.7236483902505135  7.2742538217222554  6.1031052518924849   F   F   F
  6.4187714963353057 12.6563511198561898 12.8139347123542411   T   T   T
  3.7202377226388426  2.6588065988881908  6.1032913049622373   F   F   F
 13.9103007749335621  2.6180955489746354  0.5553458565879251   F   F   F
 16.7017436662543766 12.6515242503474887  7.2771170839109116   T   T   T
 13.9133923089292040  7.3165492529060705  0.5573220444444873   F   F   F
 16.7024899240088445 17.1402141040736602  7.2775526209487094   T   T   T
  5.1121956085065534 16.6847186597440498 10.5538251280089703   T   T   T
  5.0716223472323616  6.8510251811689882  3.8635383452376817   F   F   F
  5.1110448964432775 13.1075948005228273 10.5533678904176949   T   T   T
  5.0675778804512088  3.0885523874948797  3.8662991437525744   F   F   F
 15.2067787880702827  3.1386365667794207  2.8095016779809372   F   F   F
 15.2382638521478473 13.0759646776038210  9.4469722468186372   T   T   T
 15.2146531721342750  6.8043589351010478  2.8100650827774607   F   F   F
 15.2397720302484316 16.7191412892125655  9.4478501509804271   T   T   T
  5.9737058793362507 14.8962308152674705  0.8082125968529360   T   T   T
  4.1352935690073078  4.9662221639377053  7.3097588282550134   F   F   F
 14.2959365999921761  4.9676720352088362 12.7738533407786150   F   F   F
 15.9007646814119816 14.8959307664955976  6.1281392711526426   T   T   T
  3.9490605547289555 16.4909528974689152  0.1025934041680523   T   T   T
  6.1786505832311640  6.6023811358696314  6.8068960196321688   F   F   F
  3.9467344463935587 13.3049137569627955  0.1014415395495368   T   T   T
  6.1766214949855645  3.3297544220344300  6.8044762932741785   F   F   F
 16.3479200964244207  3.3296467778122478 13.2192303414622145   F   F   F
 14.1938651008307470 12.8883326173185466  6.5254323832528538   T   T   T
 16.3517733958105467  6.5997771824323994 13.2269955998560178   F   F   F
 14.1937256513906771 16.9033439321509498  6.5287237513002632   T   T   T
  1.8263443907335186 14.9003855605927527  0.2848717649853792   T   T   T
  8.2621654880721564  4.9650685373209660  7.0921043530197938   F   F   F
 18.4383880186745372  4.9634728909208299 12.9599333342584764   F   F   F
 12.4471436137648759 14.8969179180722620  6.3464721841765899   T   T   T
  1.6318318869888568 17.2941168294114114 12.5286394979726037   T   T   T
  8.5336423388582752  7.3059029480430375  5.8747009028841584   F   F   F
  1.6272644677460457 12.5081325567443056 12.5271560847468226   T   T   T
  8.5322206212884648  2.6246850686305616  5.8751195578782722   F   F   F
 18.6913175989138161  2.6249243925669457  0.8180335729861768   F   F   F
 11.7779679643764759 12.6116804228692416  7.5125740662516183   T   T   T
 18.6979079347081338  7.2999805958910091  0.8194944471633556   F   F   F
 11.7765264700982257 17.1832672993459070  7.5100948661229863   T   T   T
  2.5253898620441961 16.6792715271886429 10.0635068198897013   T   T   T
  7.6504703595325596  6.7900631303926184  3.3798673016816783   F   F   F
  2.5249025004000427 13.1131786027894002 10.0616898247063045   T   T   T
  7.6460342998427615  3.1371411059095333  3.3803002766989674   F   F   F
 17.7935814442402211  3.2199306430823973  3.2843204467768108   F   F   F
 12.6698814459218561 13.1041738648747401 10.0114129032251551   T   T   T
 17.8005028533530734  6.7090739313008845  3.2878614046953496   F   F   F
 12.6715477750792296 16.6910346485769523 10.0077323410372863   T   T   T
  4.0840303862100304 14.8969183162307477  8.8887366120955438   T   T   T
  6.0824151537479754  4.9654938249880800  2.2875242667467690   F   F   F
 16.1984273521162194  4.9673536666681670  4.4568380925633395   F   F   F
 14.2608900285005582 14.8981689316562917 11.1191261411562916   T   T   T
  8.6469934477513348  1.3665792279826861  9.2128416231470105   F   F   F
  1.5697409919144247 11.3369612110394566  2.5331423710678393   T   T   T
  8.6505721522778103  8.5653095426050214  9.2130346126434777   T   T   T
  1.5672027290106816 18.4594561169014710  2.5351115333497272   T   T   T
 11.6866452475423372 18.4390923905668132  4.1290575827706935   T   T   T
 18.8019717070269614  8.5544981015645885 10.7962400343187284   T   T   T
 11.6867145391932379 11.3550297413169154  4.1293450593864218   T   T   T
 18.8015147858508485  1.3756502654024763 10.7938986061979207   F   F   F
  6.5786254664912365  0.6181093303950802 11.2919642659381392   F   F   F
  3.6089377682074830 10.5648097579488347  4.6229966658568076   T   T   T
  6.5798790700776317  9.3126276835768511 11.2904371351045878   T   T   T
  3.6097969154172751 19.2285056499766682  4.6238864460006361   T   T   T
 13.7871160982364991 19.1813162394894761  2.0883095593162890   T   T   T
 16.7229337176748736  9.3159777834185729  8.7506331835935942   T   T   T
 13.7866716542861294 10.6181828579511173  2.0873466606862925   T   T   T
 16.7204038766549310  0.6160448855558738  8.7500914357826378   F   F   F
  5.6177053598398814  1.0511530912673774  0.8035714736652154   F   F   F
  4.5145181286951610 10.9277608467519602  7.5368997903519750   T   T   T
  5.6242608849351257  8.8784416103119987  0.8024944941133668   F   F   F
  4.5139564026641903 18.8659319410204169  7.5369976341926801   T   T   T
 14.7290598477850470 18.8483537747515761 12.5361436562683526   T   T   T
 15.8130979294227494  8.9443638312569611  5.8232284073527154   T   T   T
 14.7299094713272112 10.9490346678077781 12.5369947772350354   T   T   T
 15.8121548004799930  0.9873780298147278  5.8227009729958450   F   F   F
  2.4841693880521363  1.0636892835772935  0.6435938191719109   F   F   F
  7.6655058596302492 11.0098673525186008  7.3380742696368877   T   T   T
  2.4893882500878299  8.8669405048945986  0.6472843809866763   F   F   F
  7.6640706181044465 18.7839943797726079  7.3379717533298949   T   T   T
 17.8829743792513547 18.8015324325233841 12.7010780017528884   T   T   T
 12.6566118643239527  8.8861388042445739  5.9896969936816067   T   T   T
 17.8833472688237549 10.9923633616089820 12.7014313024547825   T   T   T
 12.6558290526202271  1.0456784863159541  5.9874455527122619   F   F   F
  1.4954631287341322  0.7906820372450059 11.0377163533156448   F   F   F
  8.6844598811829421 10.7313453361548632  4.3352904708480402   T   T   T
  1.4972676219276169  9.1396458720174785 11.0415245196146810   T   T   T
  8.6854951030735137 19.0630628351635565  4.3361931750980665   T   T   T
 18.8678023897772000 19.1261998567820690  2.3097430420519194   T   T   T
 11.6591913753224912  9.1613419324981091  8.9932547054527703   T   T   T
 18.8706350336335724 10.6642053725637158  2.3090073574279031   T   T   T
 11.6563575935436692  0.7708451799055057  8.9898881944913658   F   F   F
  4.1140034667873842  1.4362907952024553  9.5719024302803248   F   F   F
  6.0413347366087651 11.3024093876866587  2.8721698601953225   T   T   T
  4.1139075567949330  8.4957983132358450  9.5720400896753013   T   T   T
  6.0401688372884434 18.4907326412105775  2.8727652137975976   T   T   T
 16.2654930678375678 18.4008505789248282  3.7977751062193641   T   T   T
 14.2781250154453794  8.5061250966741344 10.4977785045309577   T   T   T
 16.2670044798468787 11.3918444390099900  3.7960708603698503   T   T   T
 14.2746724254498147  1.4277818570098693 10.4951247932524598   F   F   F
  8.5945913819323874 16.4508859244538073  9.2225100425837230   T   T   T
  1.5617682403244508  6.5058560850422245  2.5081376256571146   F   F   F
  8.5937712056796123 13.3430891055576897  9.2232777358794209   T   T   T
  1.5562572316435281  3.4206387900477684  2.5067295291038714   F   F   F
 11.7342640191864742  3.4091246914094868  4.1403729317405187   F   F   F
 18.7986183673612928 13.3476504030276057 10.8903335909781074   T   T   T
 11.7371891248724971  6.5241764666202036  4.1422581944292718   F   F   F
 18.7986186032363491 16.4452730591244709 10.8920168393020571   T   T   T
  6.4488442480695278 17.3341822590293191 11.2009586812427511   T   T   T
  3.6979587586809695  7.4390188258075751  4.4894519092364922   F   F   F
  6.4479083497671095 12.4590680376029574 11.2007537284668519   T   T   T
  3.6966868442541316  2.4928371475132187  4.4892776271484234   F   F   F
 13.8789809556754395  2.4600726963696165  2.1716774436573147   F   F   F
 16.6304989786369291 12.4548739519143776  8.8866939142530779   T   T   T
 13.8829768571312240  7.4771904101147983  2.1732803162588694   F   F   F
 16.6317204813562576 17.3393120101962133  8.8869645417902667   T   T   T
  5.4964563417321983 16.4353192751504089  0.5751029319736826   T   T   T
  4.6128886214748013  6.5070460155902552  7.2251151034363739   F   F   F
  5.4941183369800655 13.3578276236591496  0.5746608871143390   T   T   T
  4.6112807558088571  3.4254257629252489  7.2245136742068254   F   F   F
 14.7786585511724233  3.4243497046803859 12.8138496210629462   F   F   F
 15.7235034861011371 13.2979266865388066  6.1517370837944352   T   T   T
 14.7829286181852613  6.5096923060049132 12.8171017814651762   F   F   F
 15.7229905445219540 16.4939687120969118  6.1537595470759276   T   T   T
  2.3425802060952292 16.4394089026838586  0.3369044324885532   T   T   T
  7.7772591166261327  6.5140650259159232  7.0708220096449272   F   F   F
  2.3399493781013412 13.3609444608956238  0.3358605231399091   T   T   T
  7.7750727189430062  3.4166409760898082  7.0702382103027404   F   F   F
 17.9490024556334582  3.4151273964549294 12.9811801582333910   F   F   F
 12.6333103883210587 13.2916938811639351  6.3126148101157185   T   T   T
 17.9514399987821278  6.5120611217908433 12.9838166035467566   F   F   F
 12.6331471236067863 16.5018453386194821  6.3119491230390956   T   T   T
  1.4347709290700770 17.5106582073441821 10.9262126820572085   T   T   T
  8.7602575571314070  7.5517762919098477  4.2816516138150167   F   F   F
  1.4338558649299964 12.2838926421812946 10.9255581687315200   T   T   T
  8.7586788588527007  2.3797804816339752  4.2815014287273581   F   F   F
 18.8939345059951229  2.4080896451606604  2.4189850892657905   F   F   F
 11.5743207308839970 12.3301299755201601  9.1022269469668391   T   T   T
 18.9002233135392324  7.5192247245118411  2.4203111156011285   F   F   F
 11.5742684849661988 17.4644288025139609  9.0999041661739071   T   T   T
  3.9885907091394595 16.4311588741135033  9.4083656705628673   T   T   T
  6.1893367205603180  6.5171640359547087  2.7343965876815202   F   F   F
  3.9881598515083949 13.3623202999897472  9.4072976973312130   T   T   T
  6.1853952682192386  3.4143361974761843  2.7351171111741532   F   F   F
 16.3276836372645349  3.4323484071820420  3.9475994443255247   F   F   F
 14.1519367540764271 13.3578065558565591 10.6236698397692013   T   T   T
 16.3325491350418410  6.5026794268459103  3.9485280585746523   F   F   F
 14.1521120528242932 16.4383627762935660 10.6231779131011148   T   T   T
  7.1685951002048851 14.8992888019224861  3.6134081923069670   T   T   T
  7.1412939913948268 14.8985728815576568  5.9273120510502890   T   T   T
  9.0116186774713700 14.8966615584124185  5.4796884744808070   T   T   T
  9.0299527869132064 14.8965208037984187  4.1128753783806022   T   T   T
  9.8779711153684673 14.8955099242965812  3.4128752075546012   T   T   T
  9.8332836701817570 14.8958386165437808  6.2076913995517300   T   T   T
