O  Si Ru C  H 
 1.0000000000000000
    20.3096463179830877    0.0000000000000000    0.0000000000000000
     0.0000000000000000   19.8625212307842212    0.0000000000000000
     0.0000000000000000    0.0000000000000000   13.3711533343531652
 O   Si  Ru  C   H  
 192  96   2   2   4
Selective dynamics
Cartesian
 10.2616966722011771  1.4261274161090935  9.4400157171302865   F   F   F
 20.2909310890547303 11.2774996454503906  2.7969503541702521   T   T   T
 10.2625022328614257  8.5059454308177305  9.4380931926283314   F   F   F
 20.2879173200219860 18.5144850672901420  2.8005845622768644   T   T   T
 10.0905115695921364 18.4230016437859589  3.8889087732556833   T   T   T
  0.0998523285825227  8.5060052848966947 10.5637927771130489   F   F   F
 10.0911529602038286 11.3629591106979717  3.8845224621362586   T   T   T
  0.0988276703657890  1.4247676575909765 10.5624616592464342   F   F   F
  7.9537852397761037  1.2455029838251457 10.6751702908736679   F   F   F
  2.3263989136722705 11.3318638056692702  3.9886303459903201   T   T   T
  7.9550598379183599  8.6853613829959571 10.6749309302535593   F   F   F
  2.3248117966740511 18.4637920452190798  3.9899790354357410   T   T   T
 12.4214954870975127 18.5352939374266050  2.6817177626189967   T   T   T
 18.0770786607303897  8.6202081354855036  9.3425658291002627   F   F   F
 12.4237533506476723 11.2600427441218809  2.6822653808061876   T   T   T
 18.0749833605258949  1.3090285314650072  9.3430401928245033   F   F   F
  8.1544572559468467  2.7284761078654038  8.4949851910109668   F   F   F
  1.9573684828079503 12.7213696846582387  1.7807980727021273   T   T   T
  8.1566374991127155  7.1985255151093055  8.4974506181296618   F   F   F
  1.9569447849393495 17.0768085767141784  1.7819247109169660   T   T   T
 12.1181998925867109 17.0722394590481130  4.8774287701643333   T   T   T
 18.3310993334953984  7.2095920550866186 11.5620267768519405   F   F   F
 12.1124757490728729 12.7227164521314009  4.8772342746010846   T   T   T
 18.3299270144790576  2.7236295107960955 11.5583305946422747   F   F   F
  8.2896926157428830  0.0730057333069966  8.2985529200020096   F   F   F
  2.0569015126884196 10.0635409047189999  1.6547062451820094   T   T   T
  8.2865941590724717  9.8537857620237173  8.2957414733640569   T   T   T
  2.0500735825838339 19.7345981252405736  1.6573060805389483   T   T   T
 12.0924886432774343 19.7435725387719465  5.0306775383415676   T   T   T
 18.4109600399499485  9.8809476855837026 11.6508288820621839   T   T   T
 12.0949629984729317 10.0513257553233242  5.0306142491399211   T   T   T
 18.4109005070837952  0.0523977484230116 11.6544427757509439   F   F   F
  6.6056798641324681  0.7737930974611372 12.9018487688428323   F   F   F
  3.5695615493942534 10.6924326787415769  6.2457546290805448   T   T   T
  6.6085677947464987  9.1586369470792128 12.9016180974298322   F   F   F
  3.5697601549568758 19.0990828803358816  6.2458040799193242   T   T   T
 13.7989850879939269 19.0321589547578469  0.4823188551223617   T   T   T
 16.7473893605483504  9.1870500916630888  7.1363961316936786   F   F   F
 13.8012437013086959 10.7631451647031771  0.4829872378030982   T   T   T
 16.7431071809520944  0.7436345289792632  7.1365173191764528   F   F   F
  6.4936287978422804 18.9150732606365359 10.8454852496294674   T   T   T
  3.5519011191513132  9.0215633650152274  4.1368681568920769   F   F   F
  6.4954644311403600 10.8790034896163643 10.8450379743505270   T   T   T
  3.5539428619446718  0.9094979277018191  4.1387697597769186   F   F   F
 13.8840096327744487  0.8750675829941135  2.5528393324433036   F   F   F
 16.7041287475646953 10.8737042168937563  9.2301535868991920   T   T   T
 13.8877104724891787  9.0585933863969395  2.5540627736600601   F   F   F
 16.7004739409875036 18.9201321733293000  9.2309220260933138   T   T   T
  5.2937840438572366  1.3932879168403960 10.6918809413847207   F   F   F
  5.0007705967383060 11.2299959219948899  4.1093943550840581   T   T   T
  5.2940885155854751  8.5391194185527830 10.6937914003825654   F   F   F
  4.9994114176446569 18.5619234741080845  4.1084475976287242   T   T   T
 15.0778354371758230 18.3873567659014903  2.7091377233246985   T   T   T
 15.4072525558902385  8.5785816799351764  9.3316988772595373   F   F   F
 15.0800125561184082 11.4080259937881383  2.7104651956729349   T   T   T
 15.4047092075072971  1.3535259962231501  9.3310210793068844   F   F   F
  5.9431116078331714  2.5307125896520786  1.3916034597904590   F   F   F
  4.2466479358308806 12.4137953594551842  8.1257010158788141   T   T   T
  5.9557750907729838  7.4013996880004367  1.3947095220177084   F   F   F
  4.2462143881509329 17.3798853769424291  8.1270357455047755   T   T   T
 14.4627151686330748 17.3751292347809141 11.9085001730345041   T   T   T
 16.1337867312333962  7.4739896038824778  5.2230961031888476   F   F   F
 14.4628706859923621 12.4189542879966091 11.9085912931221500   T   T   T
 16.1356021879353442  2.4567304352359027  5.2208876406713429   F   F   F
  4.0822656241256592  0.9265662422490029  0.3096336896114989   F   F   F
  6.0805600054280138 10.7472060074699485  7.1224071753484051   T   T   T
  4.0867249574740692  8.9962833234460167  0.3123392122486255   F   F   F
  6.0799572051968864 19.0485246837396325  7.1268421714979375   T   T   T
 16.3043059102452688 18.9901907342334297 12.9972113655653985   T   T   T
 14.2597853807406114  9.0880634844048505  6.2358545313981582   F   F   F
 16.3051995691819798 10.8041006015606289 12.9958574627917454   T   T   T
 14.2560133111392577  0.8496483602974765  6.2338855227766334   F   F   F
  5.9236672987862153 19.8268642759406717  1.9625140975096689   T   T   T
  4.1275713303169095  9.8350037879264072  8.6790095384983523   F   F   F
  5.9260545891453118  9.9683820090961213  1.9621046662716652   T   T   T
  4.1236468152906287  0.0971268038228398  8.6781196684641664   F   F   F
 14.3739641180998152  0.1103999353420700 11.4504372520262763   F   F   F
 16.2085377608408123 10.0707823456242043  4.7136332925178213   T   T   T
 14.3744024319241337  9.8208100690222171 11.4510901057197412   T   T   T
 16.2037299347110526 19.7221375326202519  4.7143713746772988   T   T   T
  2.2225277182258636  2.5109881956172488  1.3397359887598916   F   F   F
  7.9090180814609345 12.4549280507752638  8.0496418076520619   T   T   T
  2.2205314116009793  7.4216305539230811  1.3441902975576092   F   F   F
  7.9104763888017073 17.3369028433097156  8.0450411837024252   T   T   T
 18.1587984363493646 17.3069596882195071 12.1054141917104019   T   T   T
 12.4085491283043599  7.4185875112856063  5.3176054047218688   F   F   F
 18.1613921856498521 12.4871492577243064 12.1064706328228304   T   T   T
 12.4000980042649829  2.5152348341379787  5.3167457953096005   F   F   F
  1.6268433345113782  0.9426598417956281 12.6677004925027603   F   F   F
  8.4415250532695527 10.9562456067232823  5.9198910884925962   T   T   T
  1.6307133501662370  8.9863071349170678 12.6691743852379179   F   F   F
  8.4371966522500568 18.8419666891519739  5.9181275545222007   T   T   T
 18.7457630035379701 18.9765805836874790  0.6968143866968239   T   T   T
 11.8798680664437519  8.9505165611009510  7.3976286510387679   F   F   F
 18.7456586338213107 10.8141997454347472  0.6953794012741530   T   T   T
 11.8771531196326237  0.9838886783928527  7.3971098008413181   F   F   F
  2.6920087308774163  1.6156635311426455 10.3206492217032686   F   F   F
  7.5473119524826995 11.4417905787256178  3.4352748928505248   T   T   T
  2.6918601136668152  8.3168658190594975 10.3195132291421388   F   F   F
  7.5472434779187161 18.3557367321792171  3.4334432704661251   T   T   T
 17.6974402477393369 18.3034240349019157  3.0351611868153006   T   T   T
 12.8263616462368937  8.3997344531149167  9.8281756101712752   F   F   F
 17.7011214863296438 11.4904702874477049  3.0348867111564597   T   T   T
 12.8245366300343981  1.5323881100810699  9.8284186505245934   F   F   F
  1.6051361658643772 19.0933083391754153 10.6164682434411244   T   T   T
  8.6697808253978756  9.1271686888600012  3.9932305997883288   F   F   F
  1.6045540222368198 10.7004052397085658 10.6212707771837955   T   T   T
  8.6831794531668631  0.8034033956662419  3.9896932568878771   F   F   F
 18.7724247931526058  0.8332831513182491  2.7368076664435956   F   F   F
 11.7043937129046594 10.7467843718675624  9.3565792608793288   T   T   T
 18.7726177628833213  9.0972093001721781  2.7367730856927133   F   F   F
 11.7043698426876777 19.0481305051448366  9.3545969678146914   T   T   T
  4.3573772972239926  2.7659455026130617  8.6737846405313928   F   F   F
  5.6797107228554369 12.6139914932295074  1.9901582681832493   T   T   T
  4.3589634874801071  7.1665304672395020  8.6744107127965489   F   F   F
  5.6820679687087621 17.1801374227608825  1.9895829978789747   T   T   T
 16.1585008918266411 17.0376500569084115  4.6912137761294641   T   T   T
 14.5444682610569505  7.1549607990011328 11.3590455651502857   F   F   F
 16.1637027160559832 12.7553865946113056  4.6921901564474506   T   T   T
 14.5418131970653928  2.7769654842876035 11.3585881294713253   F   F   F
 10.1179673719759382 16.9262906630965126  9.5298627702594860   T   T   T
  0.0537251481289678  6.9828391817354563  2.8574073137334737   F   F   F
 10.1185716900334057 12.8684199622584643  9.5297061298826691   T   T   T
  0.0509486302344157  2.9499799355589720  2.8492813604305955   F   F   F
 10.1994197877487149  2.9794148828566906  3.8525653692068209   F   F   F
 20.2758899113998794 12.7822912307819490 10.4827261456878063   T   T   T
 10.2061369465506537  6.9653717001563189  3.8535668229000555   F   F   F
 20.2749793001211920 17.0128131696447511 10.4839442156342333   T   T   T
  7.7697419980573184 16.5978510279993685 10.6109176199604232   T   T   T
  2.4280823277366022  6.6372252087772283  3.8908007747846844   F   F   F
  7.7718302523557599 13.1962389239412072 10.6146705631178069   T   T   T
  2.4223283047692545  3.2893962869168774  3.8894030523858540   F   F   F
 12.5470573712824756  3.1727425211365032  2.7347816602375530   F   F   F
 17.8823187130017409 13.2361450627599968  9.5587218298485439   T   T   T
 12.5525566752804227  6.7601699688390502  2.7351418709821593   F   F   F
 17.8826689004519643 16.5584927955967096  9.5576105212144586   T   T   T
  8.5618217432738479 14.8964121896666732  8.7319276083969299   T   T   T
  1.5767180880800364  4.9660017695231691  2.0069650590435879   F   F   F
 11.8216801956394182  4.9681637885917445  4.5686690779142776   F   F   F
 18.9043588844310726 14.8971981473472361 11.3615879366269645   T   T   T
  6.4227294631776060 17.1368204997675448 12.8117969403413685   T   T   T
  3.7319657945357534  7.2892647376053565  6.1075597280011964   F   F   F
  6.4210481054366770 12.6557135545256632 12.8130143155825831   T   T   T
  3.7284714063190552  2.6450014815831224  6.1073080719189852   F   F   F
 13.9243090662785374  2.6068187205936364  0.5537929920465222   F   F   F
 16.7106912668611400 12.6622943566652211  7.2753073818397800   T   T   T
 13.9275471736514049  7.3268093918391060  0.5542710485156902   F   F   F
 16.7119302090837145 17.1324199637126000  7.2743521547257028   T   T   T
  5.1165603364129382 16.6766247472311910 10.5558530551276739   T   T   T
  5.0711852667490964  6.8666110401056946  3.8616136356610409   F   F   F
  5.1193896154037546 13.1180984281306934 10.5542062769207519   T   T   T
  5.0650992740950693  3.0693768122475866  3.8604497642940898   F   F   F
 15.1988239037793633  3.1540194525434253  2.8164803164242693   F   F   F
 15.2371909446698623 13.0729732986118563  9.4370561619586670   T   T   T
 15.2037159776306314  6.7793506426841033  2.8158541815868245   F   F   F
 15.2376808789444329 16.7198325085965998  9.4363987525063280   T   T   T
  5.9601878623748874 14.8973100550937954  0.7987516587673045   T   T   T
  4.1347771121747341  4.9665760793180933  7.2840743118588902   F   F   F
 14.2962558905599835  4.9663047584062374 12.7856134652822213   F   F   F
 15.8410621918662073 14.8969965266180040  6.1543007695809697   T   T   T
  3.9438671342195000 16.5057966652989130  0.0991808162199500   T   T   T
  6.1814486984295973  6.6092770176702524  6.8206408325914429   F   F   F
  3.9432543187119573 13.2925332711364312  0.0985643363931019   T   T   T
  6.1795843589953874  3.3218914855686617  6.8191849204729484   F   F   F
 16.3578011831138106  3.3386926059672937 13.2234731095275517   F   F   F
 14.2023421805082322 12.8270143663926905  6.4925937107679808   T   T   T
 16.3596585366308815  6.5921658637370451 13.2254749944387591   F   F   F
 14.2027011320997048 16.9659289243361719  6.4985892733456954   T   T   T
  1.8314760761734066 14.9002828812337924  0.2963366895754560   T   T   T
  8.2610916955516203  4.9641649271480075  7.1014880971282146   F   F   F
 18.4520801347499663  4.9649462700472649 12.9440459050847867   F   F   F
 12.5371569970194940 14.8970413471789787  6.3150407363001655   T   T   T
  1.6153266060484330 17.2866627533415205 12.5338446257638374   T   T   T
  8.5370570613211836  7.2973795128089405  5.8766605622618036   F   F   F
  1.6137992569176007 12.5136753633796438 12.5336582555248928   T   T   T
  8.5325785877486311  2.6299601600371889  5.8740295522142727   F   F   F
 18.7081514128126898  2.6304338006727841  0.8046527628821277   F   F   F
 11.7869531475633398 12.6457669829896631  7.5098124799888097   T   T   T
 18.7117911144069637  7.2959137331018562  0.8094625742465399   F   F   F
 11.7847797455889562 17.1480074482758269  7.5096083449841977   T   T   T
  2.5287812336757218 16.6775788363589079 10.0741932232212701   T   T   T
  7.6510739193061594  6.7631283786782088  3.3866900821437076   F   F   F
  2.5308898677833334 13.1142212365235764 10.0748791929920003   T   T   T
  7.6432201539587972  3.1581237530418678  3.3833592085988542   F   F   F
 17.7939890825849112  3.2331320324841064  3.2601205960014457   F   F   F
 12.6745274090222448 13.1091657533931620 10.0154787184884047   T   T   T
 17.7974133633839919  6.6977511036375210  3.2666761372818311   F   F   F
 12.6746095458218857 16.6859409225483937 10.0151414136776360   T   T   T
  4.0787307700311324 14.8967600845171404  8.8873747629926836   T   T   T
  6.0562957560915862  4.9654468133631395  2.2887896634500535   F   F   F
 16.2109228200808282  4.9655039413451467  4.4695808726313322   F   F   F
 14.2754894194327466 14.8970988132408841 11.1175031771335817   T   T   T
  8.6616034078871813  1.3621501393116893  9.2135601773766869   F   F   F
  1.5775480410212777 11.3357057032664486  2.5434729774883911   T   T   T
  8.6622250124358739  8.5673006083514114  9.2129105076369679   F   F   F
  1.5744518599487425 18.4606732312676201  2.5457202990419199   T   T   T
 11.6861772646189372 18.4503571497605101  4.1328054046752429   T   T   T
 18.8079981675571410  8.5588372544922109 10.7952105451866540   F   F   F
 11.6862055952555508 11.3430174645234239  4.1322968202347683   T   T   T
 18.8073877369781073  1.3724049755281746 10.7952055830794187   F   F   F
  6.5864744561660915  0.6177076909789976 11.2871476677476235   F   F   F
  3.6126038860597438 10.5704455076516197  4.6303867582041525   T   T   T
  6.5879381833571058  9.3141334735127934 11.2870798143289832   F   F   F
  3.6127164140780246 19.2229773019608388  4.6307864208361842   T   T   T
 13.7975232182975720 19.1744041913365031  2.0974221023813144   T   T   T
 16.7307550811129460  9.3165282624138115  8.7510985550693547   F   F   F
 13.7996757159811825 10.6211247886318763  2.0978416019807509   T   T   T
 16.7278016366544193  0.6148246755680939  8.7510776572467801   F   F   F
  5.6317549814518442  1.0514712423696488  0.8022045415820115   F   F   F
  4.5185479241174420 10.9237940569353693  7.5445348667797170   T   T   T
  5.6372493834510546  8.8783830116320104  0.8036247183879344   F   F   F
  4.5173526492097880 18.8700173563337081  7.5456645199442081   T   T   T
 14.7430860163075010 18.8405405567581994 12.5463141752597078   T   T   T
 15.8266531442869436  8.9516273514134568  5.8196058449003711   F   F   F
 14.7441186295386757 10.9537959587623757 12.5461229687378992   T   T   T
 15.8231319578675151  0.9810778894774239  5.8188945422034148   F   F   F
  2.4986062809676635  1.0642427038116400  0.6559795851497880   F   F   F
  7.6696319768771168 11.0092978343358237  7.3388246425755339   T   T   T
  2.5023865522334776  8.8659971821376722  0.6583601064456939   F   F   F
  7.6694417735821245 18.7846780474051087  7.3387709249879132   T   T   T
 17.8931905594567695 18.7954364779533449 12.7040066467525250   T   T   T
 12.6688447790326091  8.8771528769406203  5.9878610168538531   F   F   F
 17.8940086775184035 10.9984752813781110 12.7028792803926311   T   T   T
 12.6645044671600537  1.0575688167340467  5.9865273101857115   F   F   F
  1.5070908603509134  0.7932459787233431 11.0540944407927331   F   F   F
  8.6786791242845052 10.7160778041250389  4.3329892015617855   T   T   T
  1.5080511445555473  9.1371997225650521 11.0560422439740282   F   F   F
  8.6800651339413228 19.0777731501944707  4.3319055795206687   T   T   T
 18.8750995810355811 19.1329742112445693  2.3065944557734639   T   T   T
 11.6730763773745032  9.1641215786036252  8.9910894215607051   F   F   F
 18.8771488735449253 10.6595842159917993  2.3052323152743712   T   T   T
 11.6713200696636914  0.7684347014624434  8.9903309848740101   F   F   F
  4.1190213847154284  1.4480230411659412  9.5760682195562925   F   F   F
  6.0437057405300409 11.3036848571684718  2.8725060055404552   T   T   T
  4.1199053248107278  8.4839500045080918  9.5770408139725411   F   F   F
  6.0430807775661961 18.4907375210498479  2.8722353440564001   T   T   T
 16.2776620515203234 18.3840324107552036  3.8010095774660391   T   T   T
 14.2896146656926035  8.5064970863568590 10.5053532905683831   F   F   F
 16.2815620723157402 11.4096531456397798  3.8011670704756160   T   T   T
 14.2875293695642469  1.4249108195390154 10.5052707802967884   F   F   F
  8.6037915112676302 16.4513866302064820  9.2215228176509942   T   T   T
  1.5646393778179359  6.5078241532728907  2.5180605804117620   F   F   F
  8.6036761599090443 13.3423716069084595  9.2239284051213719   T   T   T
  1.5632562758010666  3.4229252358825404  2.5140535062470368   F   F   F
 11.7356684397635629  3.4070175313137376  4.1273780325721114   F   F   F
 18.8100588507123163 13.3474814342640808 10.8854064025188162   T   T   T
 11.7407991095830528  6.5296248821092187  4.1279258221601900   F   F   F
 18.8092778316252556 16.4469840130978113 10.8851274512732790   T   T   T
  6.4505872706000265 17.3341236635686009 11.1991626646701228   T   T   T
  3.6967907279454675  7.4478742038553802  4.4934372499594399   F   F   F
  6.4516272653428928 12.4597683105465133 11.1998005549746331   T   T   T
  3.6936138645102838  2.4835570878494737  4.4933606606239529   F   F   F
 13.8867960095081227  2.4531846620468918  2.1698305694135223   F   F   F
 16.6345308005270951 12.4571893222247354  8.8834408308277926   T   T   T
 13.8916521582382817  7.4805680248697897  2.1703008852228365   F   F   F
 16.6340720528694952 17.3370110922837917  8.8825374306480693   T   T   T
  5.4923586037871308 16.4381267165267140  0.5706729604791926   T   T   T
  4.6124817463931675  6.5080060048544821  7.2264228138374067   F   F   F
  5.4915125593043328 13.3566750600987216  0.5712879451277297   T   T   T
  4.6114137206135846  3.4246764363320592  7.2255655139105901   F   F   F
 14.7877605847231450  3.4248022940188045 12.8167586745900586   F   F   F
 15.7241910245839911 13.2940367466223037  6.1493956820833180   T   T   T
 14.7894477809908036  6.5072140725430012 12.8176534783280509   F   F   F
 15.7235835095481864 16.4997257791600873  6.1501251219787578   T   T   T
  2.3383565186737343 16.4420350219111171  0.3427085400871541   T   T   T
  7.7799502062400885  6.5133579397849699  7.0771122624916947   F   F   F
  2.3377105705487526 13.3587049482750473  0.3415529012009849   T   T   T
  7.7787362912933400  3.4154077398021068  7.0754118078949704   F   F   F
 17.9574366833438219  3.4194258689930082 12.9720203601206947   F   F   F
 12.6529051135082788 13.2878640036988909  6.2968737083830275   T   T   T
 17.9595224282874391  6.5112298388322891 12.9749806012267062   F   F   F
 12.6534056276937488 16.5063821391762460  6.2983801389266283   T   T   T
  1.4373055872151785 17.5134757128480523 10.9307041283057380   T   T   T
  8.7561038448494521  7.5384246368938790  4.2821820743206134   F   F   F
  1.4376674917488481 12.2807877049759924 10.9314641972709143   T   T   T
  8.7543083579710732  2.3926265987944975  4.2795200498090367   F   F   F
 18.8994852535958593  2.4151465981004017  2.4070399544318524   F   F   F
 11.5858250486327705 12.3405240093327269  9.0941928443156197   T   T   T
 18.9020493727253509  7.5147134662056354  2.4116728102599514   F   F   F
 11.5853688533899088 17.4544384375164050  9.0942125501303241   T   T   T
  3.9895947210395040 16.4290774798697292  9.4132057441355386   T   T   T
  6.1862221514325748  6.5149439015684161  2.7361094849412626   F   F   F
  3.9906005117533212 13.3637934120913400  9.4126144005048520   T   T   T
  6.1801877310652511  3.4150012536697751  2.7331232054101302   F   F   F
 16.3350044613862977  3.4346450131226751  3.9429614488660882   F   F   F
 14.1601439190470675 13.3577336000365854 10.6206518260259806   T   T   T
 16.3363595517213298  6.4970576430245863  3.9451814358207518   F   F   F
 14.1601007739614264 16.4365841475476984 10.6201674501118628   T   T   T
  6.9928813461524690 14.8969223748914512  3.7411915590971616   T   T   T
  7.1590208419492081 14.8972159991563071  5.9771300862537204   T   T   T
  9.1517295926312521 14.8970795193626788  5.4515522039166928   T   T   T
  9.0491062121070041 14.8967702746775252  3.9633993173211821   T   T   T
  9.5988461626186794 15.8030625844233974  5.8939106053551304   T   T   T
  9.5986014019152144 13.9911917948174906  5.8943552183151846   T   T   T
  9.4314959498251341 15.8021340115647586  3.4654554039764691   T   T   T
  9.4305759210249214 13.9907952193888594  3.4658219307270564   T   T   T
