O  Si Ru C  H                           
   1.00000000000000     
    20.3096463179830877    0.0000000000000000    0.0000000000000000
     0.0000000000000000   19.8625212307842212    0.0000000000000000
     0.0000000000000000    0.0000000000000000   13.3711533343531652
   O    Si   Ru   C    H 
   192    96     3     2     6
Selective dynamics
Direct
  0.5029879849140286  0.0736880022499378  0.7056288636903290   F   F   F
  0.9970284211547380  0.5697223532040638  0.2108205653063067   F   F   F
  0.5031128452538596  0.4264816157532607  0.7055685632511199   F   F   F
  0.9973143627247936  0.9305903942832785  0.2113680576018453   F   F   F
  0.4970658829080961  0.9259053688629493  0.2931925854460715   F   F   F
  0.0034391126120923  0.4284235308164099  0.7894340267133799   F   F   F
  0.4977232314688749  0.5746601300258547  0.2919582808639873   F   F   F
  0.0034167314034548  0.0712531257773108  0.7893719646286073   F   F   F
  0.3888311084915941  0.0656000853169445  0.7983258215599491   F   F   F
  0.1125161114646431  0.5675454306507035  0.2979960621643656   F   F   F
  0.3887390289412664  0.4346123299291875  0.7985316962567595   F   F   F
  0.1124721992493320  0.9325655224190044  0.2980340150583345   F   F   F
  0.6110940899940971  0.9352186381325893  0.1988751613749855   F   F   F
  0.8876433976509972  0.4317189078922965  0.7019308964086903   F   F   F
  0.6109708060997789  0.5651441694825650  0.1992167254488848   F   F   F
  0.8875634103325893  0.0682595671660593  0.7019030260281767   F   F   F
  0.4000339655041287  0.1398606412019134  0.6347728368961114   F   F   F
  0.0950231448403684  0.6389456996657330  0.1344737062025203   F   F   F
  0.4000464145262654  0.3603361732454573  0.6349546240709429   F   F   F
  0.0942522812860602  0.8607801344315362  0.1355318456190560   F   F   F
  0.6035683041573847  0.8639979521986092  0.3661824412499612   F   F   F
  0.9036527056673265  0.3611010978548634  0.8672617917551406   F   F   F
  0.6031652311234055  0.6365375418231096  0.3654846661429687   F   F   F
  0.9036778958283307  0.1390108275303916  0.8674217109684577   F   F   F
  0.4051649313656682  0.0061996633199470  0.6211204168775808   F   F   F
  0.0958108863968832  0.5046947480705413  0.1235911906252767   F   F   F
  0.4052590777471821  0.4938587439286479  0.6211954993622015   F   F   F
  0.0959675553166264  0.9948845723464572  0.1235332563087539   F   F   F
  0.5939043189247215  0.9980284240879769  0.3732436351034210   F   F   F
  0.9056254272504134  0.4954762695067316  0.8755861552017308   F   F   F
  0.5934582493326630  0.5029581211672962  0.3726836465288486   F   F   F
  0.9054634938273622  0.0043500665459391  0.8758356870171724   F   F   F
  0.3236819750143027  0.0393927234698879  0.9643039038232502   F   F   F
  0.1757033826474483  0.5375845604800773  0.4653341846973973   F   F   F
  0.3236750439388061  0.4606017033402452  0.9642217466487395   F   F   F
  0.1758302397214706  0.9624878323624344  0.4650395613066181   F   F   F
  0.6777849645784570  0.9622967174417738  0.0358629331094207   F   F   F
  0.8238439850830801  0.4615879824310340  0.5351910807674756   F   F   F
  0.6779847849027334  0.5377148417388256  0.0351550550851272   F   F   F
  0.8238534551173018  0.0384479908628634  0.5352318592888636   F   F   F
  0.3176790989442324  0.9552006134645126  0.8081992724893254   F   F   F
  0.1788308319177361  0.4540227082734134  0.3065580680414186   F   F   F
  0.3176725240438785  0.5454854995457978  0.8086835072898424   F   F   F
  0.1790897397013893  0.0462573524473200  0.3066300350984292   F   F   F
  0.6818869876458393  0.0463829527794104  0.1921736358498407   F   F   F
  0.8214568782363116  0.5454727186623742  0.6933391947492993   F   F   F
  0.6818406758149891  0.4535950970611182  0.1923474857511920   F   F   F
  0.8213506394898715  0.9543876760140932  0.6933655524849698   F   F   F
  0.2578700308960720  0.0716062146788943  0.8013372538988506   F   F   F
  0.2442492749889809  0.5684387279068019  0.3038985455705827   F   F   F
  0.2578136264334319  0.4285725183643905  0.8012002378734522   F   F   F
  0.2440701834843964  0.9314467750049147  0.3041265403338897   F   F   F
  0.7419624831969074  0.9294155561706532  0.1994087026937450   F   F   F
  0.7561951604008357  0.4302271795169545  0.6969169035009912   F   F   F
  0.7424478426497885  0.5705957420162946  0.1995371056821611   F   F   F
  0.7561742290830296  0.0698196055759865  0.6968687630168660   F   F   F
  0.2919261758287419  0.1256077184038560  0.1072573982933847   F   F   F
  0.2077727966386860  0.6240325307170380  0.6067443021193881   F   F   F
  0.2918003068801269  0.3744137744116784  0.1069419977858956   F   F   F
  0.2062843671262371  0.8757491146346439  0.6077403051016432   F   F   F
  0.7093922874687664  0.8732974808608134  0.8948622769087820   F   F   F
  0.7911315032424042  0.3754946909292372  0.3930416589200689   F   F   F
  0.7092963638489849  0.6267846363057146  0.8950145624564243   F   F   F
  0.7912040725621239  0.1246451163032205  0.3928287017359509   F   F   F
  0.1997654975012964  0.0449359244564036  0.0273205706773609   F   F   F
  0.2987062684654589  0.5420253789484732  0.5298107224603399   F   F   F
  0.1997627421497867  0.4551492801104047  0.0274639285599960   F   F   F
  0.2989800913153857  0.9571824060735281  0.5308523284795896   F   F   F
  0.8015627905327065  0.9554104014196341  0.9713416915470106   F   F   F
  0.7007492113297218  0.4593603758567184  0.4688154248738883   F   F   F
  0.8016335814598037  0.5447662655206926  0.9710223097935966   F   F   F
  0.7005483889373707  0.0408225987287807  0.4691760650264172   F   F   F
  0.2930632694059554  0.9950170741919706  0.1448459630787866   F   F   F
  0.2040670787634156  0.4946819090904242  0.6475583183954399   F   F   F
  0.2931687376836649  0.5050970776720547  0.1455051079493117   F   F   F
  0.2038529319270594  0.0054891793387739  0.6474560672224854   F   F   F
  0.7071787663639597  0.0029341682367132  0.8521286936362529   F   F   F
  0.7972084992964739  0.5055272488509672  0.3530910341113156   F   F   F
  0.7070699633727529  0.4971141075451939  0.8517543059251906   F   F   F
  0.7971255746825108  0.9942354255119383  0.3528444858321222   F   F   F
  0.1085725273170155  0.1276011550522753  0.0978613130997559   F   F   F
  0.3886278461981121  0.6253715643253344  0.6051234086589403   F   F   F
  0.1086507789327769  0.3722207482890312  0.0976563855098291   F   F   F
  0.3888876667311933  0.8746881980040797  0.6053248297579472   F   F   F
  0.8934558350579707  0.8721491864944539  0.9007278639475871   F   F   F
  0.6105029816559977  0.3720362037711809  0.4054059163878065   F   F   F
  0.8935308870035783  0.6276889328054622  0.9007246192144152   F   F   F
  0.6105861612465304  0.1282970419584615  0.4058790227296925   F   F   F
  0.0807519911177152  0.0483860818593698  0.9457515979484938   F   F   F
  0.4165846182685584  0.5511341617276670  0.4448297557492324   F   F   F
  0.0808156455189035  0.4516633690678731  0.9457386009272213   F   F   F
  0.4160878138274597  0.9489351859343031  0.4448190483946419   F   F   F
  0.9200911193236863  0.9518241284988065  0.0542836496464787   F   F   F
  0.5829876440382833  0.4548550494803720  0.5551010639172418   F   F   F
  0.9200642428888912  0.5482758117323883  0.0542594743547653   F   F   F
  0.5831092086966549  0.0452233042921648  0.5548928724015525   F   F   F
  0.1302727945766335  0.0807598778833665  0.7671723748127235   F   F   F
  0.3703483932009632  0.5789371074454550  0.2597957707767975   F   F   F
  0.1304066524961485  0.4194123415256428  0.7669455744432554   F   F   F
  0.3714927480418950  0.9213853452587415  0.2605977644385646   F   F   F
  0.8697941654140280  0.9190173605472935  0.2318581661841250   F   F   F
  0.6287518127798819  0.4249960909357782  0.7354291438245042   F   F   F
  0.8701091557009661  0.5809974928750563  0.2318633923011220   F   F   F
  0.6286487698366940  0.0751318143471948  0.7354588579380135   F   F   F
  0.0772723694176989  0.9603151952095175  0.7950662478875685   F   F   F
  0.4269156267498744  0.4618238462722104  0.2971858755396468   F   F   F
  0.0768437963268624  0.5393975479326585  0.7947545009298054   F   F   F
  0.4269482045506123  0.0384368164912132  0.2973399354115003   F   F   F
  0.9212655748232379  0.0396924867173283  0.2053812884793302   F   F   F
  0.5686438417897648  0.5421044825996830  0.7044034254303853   F   F   F
  0.9215686387698980  0.4604767634099645  0.2053554789829519   F   F   F
  0.5685714990672466  0.9580157526354895  0.7049286365832401   F   F   F
  0.2138744044194070  0.1397659988470537  0.6476913915812474   F   F   F
  0.2807700866409917  0.6391192415517466  0.1471536941496154   F   F   F
  0.2139153152474833  0.3606339734353057  0.6479599063835622   F   F   F
  0.2820140938607949  0.8601346691039353  0.1475414538633473   F   F   F
  0.7862416839389681  0.8602512387521770  0.3519781917394980   F   F   F
  0.7123876951550940  0.3627758333705771  0.8518749637622491   F   F   F
  0.7862151137379598  0.6398892745622859  0.3520977208510629   F   F   F
  0.7123928452496457  0.1374569263359433  0.8519740583904252   F   F   F
  0.4998212116834750  0.8445958446617681  0.7078710264057833   F   F   F
  0.0027348146644215  0.3558642143732129  0.2143297079483588   F   F   F
  0.4992104995617623  0.6555226977312714  0.7076292750763358   F   F   F
  0.0026290129253681  0.1440754804675635  0.2144227513051291   F   F   F
  0.5033452174687625  0.1464560910210153  0.2907468753587423   F   F   F
  0.9984574490023306  0.6460286645301423  0.7807361799333634   F   F   F
  0.5035280378596880  0.3534330627484437  0.2906669773933857   F   F   F
  0.9985612840139595  0.8542410867444374  0.7811975773429651   F   F   F
  0.3861232354559974  0.8403691731179492  0.7984192266340244   F   F   F
  0.1198710312391427  0.3351045019285479  0.2891212435249599   F   F   F
  0.3857448658412039  0.6595917363907304  0.7982857773861483   F   F   F
  0.1199329203048194  0.1648417017946642  0.2892062530007991   F   F   F
  0.6199699296707095  0.1635639229024051  0.2128788789970315   F   F   F
  0.8810101973313706  0.6642972403184899  0.7091787376451961   F   F   F
  0.6199267811128664  0.3364596658887109  0.2128455620379626   F   F   F
  0.8810325987278418  0.8357769830831074  0.7094702493681027   F   F   F
  0.4119403655095439  0.7497534555948633  0.6585700315503900   F   F   F
  0.0730493469758784  0.2501796185751886  0.1529946525505963   F   F   F
  0.5771839540526003  0.2501522972423658  0.3503377503259841   F   F   F
  0.9266162228395558  0.7499822550013633  0.8456175673486968   F   F   F
  0.3144417712426275  0.8676827720928841  0.9580068772852783   F   F   F
  0.1828239553264410  0.3675513426874701  0.4556300457049360   F   F   F
  0.3149852186187942  0.6325831343795087  0.9573975718561840   F   F   F
  0.1828474805865099  0.1326643379494001  0.4557822360239356   F   F   F
  0.6823610563158624  0.1350361642898363  0.0450238125554563   F   F   F
  0.8169892448838141  0.6316005251280572  0.5440061850984890   F   F   F
  0.6823931012537230  0.3650874698277136  0.0449189129572360   F   F   F
  0.8173418647077781  0.8684292460083398  0.5439560837255968   F   F   F
  0.2550541785397016  0.8389508363797944  0.7857556679083118   F   F   F
  0.2500759162902071  0.3423922410125257  0.2901659631989659   F   F   F
  0.2554240910987104  0.6607497721000257  0.7869273370683558   F   F   F
  0.2502403500563020  0.1576751938847210  0.2900772886121388   F   F   F
  0.7504111390307671  0.1592837462494359  0.2097248941524654   F   F   F
  0.7509200520391985  0.6568277270063021  0.7103974906280826   F   F   F
  0.7505238256756854  0.3407424394872720  0.2099086279269429   F   F   F
  0.7510231291151968  0.8431725222912760  0.7102776043275156   F   F   F
  0.2832155578466953  0.7495629882328458  0.0372825676944686   F   F   F
  0.2021854553312039  0.2501254978224665  0.5427621402464666   F   F   F
  0.7051932819516367  0.2501926487543216  0.9516076734084606   F   F   F
  0.8016946600954284  0.7499802278270735  0.4571036028406041   F   F   F
  0.1916673850912929  0.8408677277865522  0.0060250228499683   F   F   F
  0.3033109018384792  0.3324180283660425  0.5082968916158634   F   F   F
  0.1911068576235593  0.6597510676125040  0.0046978237013278   F   F   F
  0.3033732238245292  0.1677330458614890  0.5083731417126103   F   F   F
  0.8034888952106698  0.1646405358522145  0.9889105380346876   F   F   F
  0.6972878895427641  0.6717380644989959  0.4910589209087703   F   F   F
  0.8035228581854525  0.3354205012551503  0.9890174883924701   F   F   F
  0.6976824340859125  0.8285743392966438  0.4916235572230363   F   F   F
  0.0946959323949699  0.7496291965887636  0.0253363099468515   F   F   F
  0.4062614312820614  0.2499722068362260  0.5242522659011684   F   F   F
  0.9045764234448370  0.2501486290198542  0.9752291138349918   F   F   F
  0.5932505923808833  0.7501887382770818  0.4656786079555815   F   F   F
  0.0739002073760702  0.8690463547670362  0.9387901638666136   F   F   F
  0.4188961976069052  0.3700606893825551  0.4393654923408334   F   F   F
  0.0747952900247526  0.6313083754602431  0.9380775244951778   F   F   F
  0.4188662879183838  0.1300711056279695  0.4391965626074636   F   F   F
  0.9191076530548230  0.1317253075560458  0.0637873896608028   F   F   F
  0.5838183712329652  0.6322241204643291  0.5612612695963151   F   F   F
  0.9191466296682407  0.3683518232678153  0.0639076844911628   F   F   F
  0.5838274161978632  0.8683808911486750  0.5619450586019639   F   F   F
  0.1257370426598499  0.8400501277930275  0.7593864191273241   F   F   F
  0.3773202991711244  0.3422299156747854  0.2523835752384258   F   F   F
  0.1258971902503419  0.6593778723952894  0.7569671778214087   F   F   F
  0.3776149270837266  0.1577410096335541  0.2524466681348159   F   F   F
  0.8773266697024624  0.1610847173834529  0.2500094405373616   F   F   F
  0.6240080829451529  0.6587475563132088  0.7489850512552607   F   F   F
  0.8772887261810070  0.3391085157816178  0.2501058668479317   F   F   F
  0.6238273081306573  0.8413697271129124  0.7489510264306602   F   F   F
  0.1991355837768154  0.7498945902466545  0.6648327029871339   F   F   F
  0.3014789497777954  0.2500475469408343  0.1691545062516369   F   F   F
  0.7991505279607125  0.2502094926227798  0.3358493984783593   F   F   F
  0.7016051971406725  0.7498176387262561  0.8319463976127608   F   F   F
  0.4238947902946464  0.0708618340012777  0.6888862714735566   F   F   F
  0.0753375845042612  0.5698106353483539  0.1903556530876358   F   F   F
  0.4240540346080124  0.4290895319953947  0.6887298419511509   F   F   F
  0.0750178499637713  0.9300500056903047  0.1905850708556471   F   F   F
  0.5759465181824623  0.9312725668151813  0.3090210992794340   F   F   F
  0.9249893069482269  0.4294924158394551  0.8097219532439581   F   F   F
  0.5755841618450006  0.5690322579096829  0.3084499936516849   F   F   F
  0.9251699422058479  0.0705283169238413  0.8094810719253616   F   F   F
  0.3218822783842299  0.0325473556577691  0.8436980732236918   F   F   F
  0.1783713468830683  0.5317357923709096  0.3444104531552554   F   F   F
  0.3219675093803431  0.4672287230455154  0.8440058497798049   F   F   F
  0.1788470897483450  0.9680505663468253  0.3444797257972070   F   F   F
  0.6784505432511452  0.9684443060433665  0.1553486247217464   F   F   F
  0.8221660187293836  0.4671277867647277  0.6560664377430925   F   F   F
  0.6785666643939550  0.5316029885911320  0.1556174064735103   F   F   F
  0.8221963605373190  0.0329956553134849  0.6558753515784588   F   F   F
  0.2766335669686271  0.0512680409960069  0.0619263231094749   F   F   F
  0.2220728897837958  0.5502970231592172  0.5629071284335154   F   F   F
  0.2765025215390224  0.4481691885212840  0.0616374674080618   F   F   F
  0.2216409493720448  0.9497908930184593  0.5633081743208805   F   F   F
  0.7245570294753989  0.9484488995575973  0.9377682949422450   F   F   F
  0.7777587563380592  0.4503339509239481  0.4369949694804944   F   F   F
  0.7245242704331787  0.5516520792443345  0.9383473166390743   F   F   F
  0.7780012018801941  0.0498345718721254  0.4372534329874682   F   F   F
  0.1218266035251361  0.0542297124544291  0.0484504481986932   F   F   F
  0.3772212579654521  0.5536316499049008  0.5487087730813158   F   F   F
  0.1219578222360909  0.4457079653836402  0.0488141765360197   F   F   F
  0.3765672137276752  0.9462159586101180  0.5496739413240377   F   F   F
  0.8796539069791223  0.9461189765802374  0.9501528085557780   F   F   F
  0.6225998142231646  0.4468313954068037  0.4506551324281318   F   F   F
  0.8795152875963481  0.5539165248608739  0.9501310422350784   F   F   F
  0.6226372096980555  0.0533234603074746  0.4506760025035632   F   F   F
  0.0730042356784537  0.0398561660575680  0.8254988219444215   F   F   F
  0.4271979135979720  0.5418710407399985  0.3256949947377947   F   F   F
  0.0729270605267587  0.4601429285104217  0.8253314512261767   F   F   F
  0.4271577353549461  0.9578034181432429  0.3254807673814142   F   F   F
  0.9266064098013089  0.9608925773774502  0.1743901661101077   F   F   F
  0.5711683419548095  0.4624799291500068  0.6740576549265427   F   F   F
  0.9268247743742677  0.5393548490073741  0.1744430650460700   F   F   F
  0.5712331160913422  0.0376395431295649  0.6745872198517517   F   F   F
  0.2012582565670655  0.0734073098006007  0.7146508451576565   F   F   F
  0.2974327331647828  0.5723078660483623  0.2142026513899253   F   F   F
  0.2016037650817495  0.4267316055794410  0.7145947263262968   F   F   F
  0.2975893944924195  0.9273594755859165  0.2138246009419049   F   F   F
  0.7989452075046160  0.9267833205539731  0.2854523514113581   F   F   F
  0.7014515864368960  0.4295884007252653  0.7854006458225271   F   F   F
  0.7987871519592034  0.5732425169735151  0.2849161108228202   F   F   F
  0.7014678901076437  0.0705870412576530  0.7854906046151839   F   F   F
  0.4219984245145909  0.8285748253144476  0.6926113937382183   F   F   F
  0.0757980354243770  0.3280651758082698  0.1880592247324699   F   F   F
  0.4220615021643184  0.6716559380891667  0.6916303741092165   F   F   F
  0.0758579046728585  0.1716579977975101  0.1881247903997121   F   F   F
  0.5772917247177602  0.1718510878307526  0.3154620693538490   F   F   F
  0.9250390800465809  0.6719447891410439  0.8102343242902847   F   F   F
  0.5771848490921556  0.3283054729580641  0.3152374390610149   F   F   F
  0.9250384071642372  0.8284304952031292  0.8104200343497894   F   F   F
  0.3172566531398289  0.8752087396937327  0.8369093365749478   F   F   F
  0.1829921680967956  0.3744176938736743  0.3350132396336960   F   F   F
  0.3170272589154450  0.6249914325226342  0.8370639722321584   F   F   F
  0.1829795348040264  0.1254271731499088  0.3347694598416808   F   F   F
  0.6836837481491855  0.1264450834884485  0.1652849096957709   F   F   F
  0.8174386395812050  0.6246292783230700  0.6646106896848067   F   F   F
  0.6835800292384207  0.3737345540588990  0.1652128869820970   F   F   F
  0.8176299324412852  0.8754263368393609  0.6648357590870404   F   F   F
  0.2673731758616995  0.8303089202011265  0.0389229776014446   F   F   F
  0.2262042507954902  0.3274472008727187  0.5388905175852159   F   F   F
  0.2682979911471861  0.6707988543990027  0.0392789077290061   F   F   F
  0.2260228471946348  0.1725936661509309  0.5391252011171801   F   F   F
  0.7264964334316062  0.1718706892593573  0.9588762386944083   F   F   F
  0.7760324199850217  0.6732767809943283  0.4597460441999601   F   F   F
  0.7264543682521349  0.3281269415387698  0.9591306506684560   F   F   F
  0.7761551310000598  0.8268886634208528  0.4600543090398830   F   F   F
  0.1139919522831718  0.8294999571223656  0.0265517220992422   F   F   F
  0.3819987284052502  0.3280555191709524  0.5268143620502030   F   F   F
  0.1138188991439861  0.6708097132821464  0.0256014230433763   F   F   F
  0.3819435443546695  0.1721466652410442  0.5268292399365251   F   F   F
  0.8824917409177786  0.1714762952636519  0.9733817178013879   F   F   F
  0.6194407110693660  0.6723669037381441  0.4707636155140662   F   F   F
  0.8824251169854591  0.3282882959357920  0.9735504398866794   F   F   F
  0.6196876490494603  0.8283402133433242  0.4707405879982289   F   F   F
  0.0698545952762544  0.8808198053321732  0.8187982032030376   F   F   F
  0.4310980134049700  0.3822078990311866  0.3204224041784514   F   F   F
  0.0699789389505909  0.6191133832817926  0.8182019262962754   F   F   F
  0.4310843324830884  0.1182200244862059  0.3203771347581466   F   F   F
  0.9298982147195787  0.1194539284666902  0.1827237569683717   F   F   F
  0.5694488350905544  0.6217084842286837  0.6807430516863633   F   F   F
  0.9299435974958712  0.3805739757747233  0.1827567016247542   F   F   F
  0.5693780368914005  0.8781504431748530  0.6809046369332918   F   F   F
  0.1970782720137407  0.8271697450438253  0.7044433443716898   F   F   F
  0.3055576748739028  0.3278958184787300  0.2049243909984568   F   F   F
  0.1971974805069294  0.6731806770747468  0.7035228583804596   F   F   F
  0.3054664979902739  0.1718864803280482  0.2047711349513719   F   F   F
  0.8046875456932838  0.1726881501002069  0.2971697002175659   F   F   F
  0.6965927183514395  0.6722488122154360  0.7969908532890102   F   F   F
  0.8046052112968738  0.3271627026729291  0.2970504743833047   F   F   F
  0.6967822712448140  0.8280295478655262  0.7973150976967034   F   F   F
  0.4819344079650136  0.7523750983251603  0.3539060451856813   F   F   F
  0.3699810925668103  0.7455625673150408  0.2895037433107817   F   F   F
  0.3850897205244621  0.7497960328368194  0.4629664336735217   F   F   F
  0.4085373513177970  0.7410936479400974  0.1439488053664562   T   T   T
  0.5032388055167516  0.7602026658636447  0.2023673380767761   T   T   T
  0.3526916660720758  0.7394790921080627  0.1577707301536506   T   T   T
  0.4160261193990848  0.7819769843370352  0.0911084884925657   T   T   T
  0.4183010847100874  0.6920800791448585  0.1076855628577391   T   T   T
  0.5078795309045390  0.8098403131303016  0.1663739103173540   T   T   T
  0.5509072781445710  0.7481527656300671  0.2480636462317918   T   T   T
  0.5095612627043451  0.7211327671351597  0.1444926146578524   T   T   T
 
  0.00000000E+00  0.00000000E+00  0.00000000E+00
  0.00000000E+00  0.00000000E+00  0.00000000E+00
  0.00000000E+00  0.00000000E+00  0.00000000E+00
  0.00000000E+00  0.00000000E+00  0.00000000E+00
  0.00000000E+00  0.00000000E+00  0.00000000E+00
  0.00000000E+00  0.00000000E+00  0.00000000E+00
  0.00000000E+00  0.00000000E+00  0.00000000E+00
  0.00000000E+00  0.00000000E+00  0.00000000E+00
  0.00000000E+00  0.00000000E+00  0.00000000E+00
  0.00000000E+00  0.00000000E+00  0.00000000E+00
  0.00000000E+00  0.00000000E+00  0.00000000E+00
  0.00000000E+00  0.00000000E+00  0.00000000E+00
  0.00000000E+00  0.00000000E+00  0.00000000E+00
  0.00000000E+00  0.00000000E+00  0.00000000E+00
  0.00000000E+00  0.00000000E+00  0.00000000E+00
  0.00000000E+00  0.00000000E+00  0.00000000E+00
  0.00000000E+00  0.00000000E+00  0.00000000E+00
  0.00000000E+00  0.00000000E+00  0.00000000E+00
  0.00000000E+00  0.00000000E+00  0.00000000E+00
  0.00000000E+00  0.00000000E+00  0.00000000E+00
  0.00000000E+00  0.00000000E+00  0.00000000E+00
  0.00000000E+00  0.00000000E+00  0.00000000E+00
  0.00000000E+00  0.00000000E+00  0.00000000E+00
  0.00000000E+00  0.00000000E+00  0.00000000E+00
  0.00000000E+00  0.00000000E+00  0.00000000E+00
  0.00000000E+00  0.00000000E+00  0.00000000E+00
  0.00000000E+00  0.00000000E+00  0.00000000E+00
  0.00000000E+00  0.00000000E+00  0.00000000E+00
  0.00000000E+00  0.00000000E+00  0.00000000E+00
  0.00000000E+00  0.00000000E+00  0.00000000E+00
  0.00000000E+00  0.00000000E+00  0.00000000E+00
  0.00000000E+00  0.00000000E+00  0.00000000E+00
  0.00000000E+00  0.00000000E+00  0.00000000E+00
  0.00000000E+00  0.00000000E+00  0.00000000E+00
  0.00000000E+00  0.00000000E+00  0.00000000E+00
  0.00000000E+00  0.00000000E+00  0.00000000E+00
  0.00000000E+00  0.00000000E+00  0.00000000E+00
  0.00000000E+00  0.00000000E+00  0.00000000E+00
  0.00000000E+00  0.00000000E+00  0.00000000E+00
  0.00000000E+00  0.00000000E+00  0.00000000E+00
  0.00000000E+00  0.00000000E+00  0.00000000E+00
  0.00000000E+00  0.00000000E+00  0.00000000E+00
  0.00000000E+00  0.00000000E+00  0.00000000E+00
  0.00000000E+00  0.00000000E+00  0.00000000E+00
  0.00000000E+00  0.00000000E+00  0.00000000E+00
  0.00000000E+00  0.00000000E+00  0.00000000E+00
  0.00000000E+00  0.00000000E+00  0.00000000E+00
  0.00000000E+00  0.00000000E+00  0.00000000E+00
  0.00000000E+00  0.00000000E+00  0.00000000E+00
  0.00000000E+00  0.00000000E+00  0.00000000E+00
  0.00000000E+00  0.00000000E+00  0.00000000E+00
  0.00000000E+00  0.00000000E+00  0.00000000E+00
  0.00000000E+00  0.00000000E+00  0.00000000E+00
  0.00000000E+00  0.00000000E+00  0.00000000E+00
  0.00000000E+00  0.00000000E+00  0.00000000E+00
  0.00000000E+00  0.00000000E+00  0.00000000E+00
  0.00000000E+00  0.00000000E+00  0.00000000E+00
  0.00000000E+00  0.00000000E+00  0.00000000E+00
  0.00000000E+00  0.00000000E+00  0.00000000E+00
  0.00000000E+00  0.00000000E+00  0.00000000E+00
  0.00000000E+00  0.00000000E+00  0.00000000E+00
  0.00000000E+00  0.00000000E+00  0.00000000E+00
  0.00000000E+00  0.00000000E+00  0.00000000E+00
  0.00000000E+00  0.00000000E+00  0.00000000E+00
  0.00000000E+00  0.00000000E+00  0.00000000E+00
  0.00000000E+00  0.00000000E+00  0.00000000E+00
  0.00000000E+00  0.00000000E+00  0.00000000E+00
  0.00000000E+00  0.00000000E+00  0.00000000E+00
  0.00000000E+00  0.00000000E+00  0.00000000E+00
  0.00000000E+00  0.00000000E+00  0.00000000E+00
  0.00000000E+00  0.00000000E+00  0.00000000E+00
  0.00000000E+00  0.00000000E+00  0.00000000E+00
  0.00000000E+00  0.00000000E+00  0.00000000E+00
  0.00000000E+00  0.00000000E+00  0.00000000E+00
  0.00000000E+00  0.00000000E+00  0.00000000E+00
  0.00000000E+00  0.00000000E+00  0.00000000E+00
  0.00000000E+00  0.00000000E+00  0.00000000E+00
  0.00000000E+00  0.00000000E+00  0.00000000E+00
  0.00000000E+00  0.00000000E+00  0.00000000E+00
  0.00000000E+00  0.00000000E+00  0.00000000E+00
  0.00000000E+00  0.00000000E+00  0.00000000E+00
  0.00000000E+00  0.00000000E+00  0.00000000E+00
  0.00000000E+00  0.00000000E+00  0.00000000E+00
  0.00000000E+00  0.00000000E+00  0.00000000E+00
  0.00000000E+00  0.00000000E+00  0.00000000E+00
  0.00000000E+00  0.00000000E+00  0.00000000E+00
  0.00000000E+00  0.00000000E+00  0.00000000E+00
  0.00000000E+00  0.00000000E+00  0.00000000E+00
  0.00000000E+00  0.00000000E+00  0.00000000E+00
  0.00000000E+00  0.00000000E+00  0.00000000E+00
  0.00000000E+00  0.00000000E+00  0.00000000E+00
  0.00000000E+00  0.00000000E+00  0.00000000E+00
  0.00000000E+00  0.00000000E+00  0.00000000E+00
  0.00000000E+00  0.00000000E+00  0.00000000E+00
  0.00000000E+00  0.00000000E+00  0.00000000E+00
  0.00000000E+00  0.00000000E+00  0.00000000E+00
  0.00000000E+00  0.00000000E+00  0.00000000E+00
  0.00000000E+00  0.00000000E+00  0.00000000E+00
  0.00000000E+00  0.00000000E+00  0.00000000E+00
  0.00000000E+00  0.00000000E+00  0.00000000E+00
  0.00000000E+00  0.00000000E+00  0.00000000E+00
  0.00000000E+00  0.00000000E+00  0.00000000E+00
  0.00000000E+00  0.00000000E+00  0.00000000E+00
  0.00000000E+00  0.00000000E+00  0.00000000E+00
  0.00000000E+00  0.00000000E+00  0.00000000E+00
  0.00000000E+00  0.00000000E+00  0.00000000E+00
  0.00000000E+00  0.00000000E+00  0.00000000E+00
  0.00000000E+00  0.00000000E+00  0.00000000E+00
  0.00000000E+00  0.00000000E+00  0.00000000E+00
  0.00000000E+00  0.00000000E+00  0.00000000E+00
  0.00000000E+00  0.00000000E+00  0.00000000E+00
  0.00000000E+00  0.00000000E+00  0.00000000E+00
  0.00000000E+00  0.00000000E+00  0.00000000E+00
  0.00000000E+00  0.00000000E+00  0.00000000E+00
  0.00000000E+00  0.00000000E+00  0.00000000E+00
  0.00000000E+00  0.00000000E+00  0.00000000E+00
  0.00000000E+00  0.00000000E+00  0.00000000E+00
  0.00000000E+00  0.00000000E+00  0.00000000E+00
  0.00000000E+00  0.00000000E+00  0.00000000E+00
  0.00000000E+00  0.00000000E+00  0.00000000E+00
  0.00000000E+00  0.00000000E+00  0.00000000E+00
  0.00000000E+00  0.00000000E+00  0.00000000E+00
  0.00000000E+00  0.00000000E+00  0.00000000E+00
  0.00000000E+00  0.00000000E+00  0.00000000E+00
  0.00000000E+00  0.00000000E+00  0.00000000E+00
  0.00000000E+00  0.00000000E+00  0.00000000E+00
  0.00000000E+00  0.00000000E+00  0.00000000E+00
  0.00000000E+00  0.00000000E+00  0.00000000E+00
  0.00000000E+00  0.00000000E+00  0.00000000E+00
  0.00000000E+00  0.00000000E+00  0.00000000E+00
  0.00000000E+00  0.00000000E+00  0.00000000E+00
  0.00000000E+00  0.00000000E+00  0.00000000E+00
  0.00000000E+00  0.00000000E+00  0.00000000E+00
  0.00000000E+00  0.00000000E+00  0.00000000E+00
  0.00000000E+00  0.00000000E+00  0.00000000E+00
  0.00000000E+00  0.00000000E+00  0.00000000E+00
  0.00000000E+00  0.00000000E+00  0.00000000E+00
  0.00000000E+00  0.00000000E+00  0.00000000E+00
  0.00000000E+00  0.00000000E+00  0.00000000E+00
  0.00000000E+00  0.00000000E+00  0.00000000E+00
  0.00000000E+00  0.00000000E+00  0.00000000E+00
  0.00000000E+00  0.00000000E+00  0.00000000E+00
  0.00000000E+00  0.00000000E+00  0.00000000E+00
  0.00000000E+00  0.00000000E+00  0.00000000E+00
  0.00000000E+00  0.00000000E+00  0.00000000E+00
  0.00000000E+00  0.00000000E+00  0.00000000E+00
  0.00000000E+00  0.00000000E+00  0.00000000E+00
  0.00000000E+00  0.00000000E+00  0.00000000E+00
  0.00000000E+00  0.00000000E+00  0.00000000E+00
  0.00000000E+00  0.00000000E+00  0.00000000E+00
  0.00000000E+00  0.00000000E+00  0.00000000E+00
  0.00000000E+00  0.00000000E+00  0.00000000E+00
  0.00000000E+00  0.00000000E+00  0.00000000E+00
  0.00000000E+00  0.00000000E+00  0.00000000E+00
  0.00000000E+00  0.00000000E+00  0.00000000E+00
  0.00000000E+00  0.00000000E+00  0.00000000E+00
  0.00000000E+00  0.00000000E+00  0.00000000E+00
  0.00000000E+00  0.00000000E+00  0.00000000E+00
  0.00000000E+00  0.00000000E+00  0.00000000E+00