O  Si Ru C  H                           
   1.00000000000000     
    20.3096463179830877    0.0000000000000000    0.0000000000000000
     0.0000000000000000   19.8625212307842212    0.0000000000000000
     0.0000000000000000    0.0000000000000000   13.3711533343531652
   O    Si   Ru   C    H 
   192    96     1     2     5
Selective dynamics
Direct
  0.5025909357277101  0.0727798873228238  0.7075249800237629   F   F   F
  0.9974090642722899  0.5727798873228238  0.2075249800237629   F   F   F
  0.5025909357277101  0.4272201126771762  0.7075249800237629   F   F   F
  0.9972317444155507  0.9272109338058669  0.2076984166681513   F   F   F
  0.4978271540894781  0.9282330532924092  0.2917366416195648   F   F   F
  0.0025909357277101  0.4272201126771762  0.7924750199762371   F   F   F
  0.4974090642722899  0.5727798873228238  0.2924750199762371   F   F   F
  0.0025909357277101  0.0727798873228238  0.7924750199762371   F   F   F
  0.3868825154844515  0.0693889629433002  0.7958398315398867   F   F   F
  0.1131174845155485  0.5693889629433002  0.2958398315398867   F   F   F
  0.3868825154844515  0.4306110370566998  0.7958398315398867   F   F   F
  0.1128821382658955  0.9307896449529807  0.2960060861522607   F   F   F
  0.6130168091213619  0.9306790954858215  0.2036193459942766   F   F   F
  0.8868825154844515  0.4306110370566998  0.7041601684601133   F   F   F
  0.6131174845155485  0.5693889629433002  0.2041601684601133   F   F   F
  0.8868825154844515  0.0693889629433002  0.7041601684601133   F   F   F
  0.4023996572529711  0.1395881488352799  0.6299567877606833   F   F   F
  0.0975891026596614  0.6396395698340243  0.1300924224705113   F   F   F
  0.4023996572529711  0.3604118511647201  0.6299567877606833   F   F   F
  0.0974744237055418  0.8604734056913514  0.1302838847148067   F   F   F
  0.5985718050681328  0.8607503887617085  0.3693548954078665   F   F   F
  0.9023996572529711  0.3604118511647201  0.8700432122393167   F   F   F
  0.5986167944141272  0.6396706454752348  0.3695321284970703   F   F   F
  0.9023996572529711  0.1395881488352799  0.8700432122393167   F   F   F
  0.4045031871746829  0.0051825304987858  0.6227513228883907   F   F   F
  0.0954968128253171  0.5051825304987858  0.1227513228883836   F   F   F
  0.4045031871746829  0.4948174695012142  0.6227513228883907   F   F   F
  0.0953395385534321  0.9948105055411247  0.1227218554583587   F   F   F
  0.5958166488399925  0.9946466043920950  0.3772348728564623   F   F   F
  0.9045031871746829  0.4948174695012142  0.8772486771116093   F   F   F
  0.5954968128253171  0.5051825304987858  0.3772486771116164   F   F   F
  0.9045031871746829  0.0051825304987858  0.8772486771116093   F   F   F
  0.3244131055804047  0.0395323330820503  0.9639933782656485   F   F   F
  0.1755868944195953  0.5395323330820503  0.4639933782656414   F   F   F
  0.3244131055804047  0.4604676669179497  0.9639933782656485   F   F   F
  0.1754583339249365  0.9605135978252832  0.4640503820583888   F   F   F
  0.6757208866002173  0.9607460717805836  0.0358009205047480   F   F   F
  0.8244131055804047  0.4604676669179497  0.5360066217343515   F   F   F
  0.6755868944195953  0.5395323330820503  0.0360066217343515   F   F   F
  0.8244131055804047  0.0395323330820503  0.5360066217343515   F   F   F
  0.3245101881779675  0.9537882052667328  0.8087514637772699   F   F   F
  0.1753558411149996  0.4538071248021893  0.3088267361878323   F   F   F
  0.3246441588850004  0.5461928751978107  0.8088267361878323   F   F   F
  0.1753558411149996  0.0461928751978107  0.3088267361878323   F   F   F
  0.6753558411149996  0.0461928751978107  0.1911732638121677   F   F   F
  0.8246441588850004  0.5461928751978107  0.6911732638121677   F   F   F
  0.6753558411149996  0.4538071248021893  0.1911732638121677   F   F   F
  0.8244130962595690  0.9538332104365850  0.6914471619668348   F   F   F
  0.2554253162963604  0.0666022326352760  0.8022081905298890   F   F   F
  0.2445746837036396  0.5666022326352760  0.3022081905298890   F   F   F
  0.2554253162963604  0.4333977673647240  0.8022081905298890   F   F   F
  0.2442589477945916  0.9332614777502570  0.3020642081753948   F   F   F
  0.7445979195488164  0.9334371626846973  0.1975336906791867   F   F   F
  0.7554253162963604  0.4333977673647240  0.6977918094701110   F   F   F
  0.7445746837036396  0.5666022326352760  0.1977918094701110   F   F   F
  0.7554253162963604  0.0666022326352760  0.6977918094701110   F   F   F
  0.2915288497951138  0.1271841775282851  0.1038202525947156   F   F   F
  0.2082422887363506  0.6270983197297397  0.6037541174559706   F   F   F
  0.2915288497951138  0.3728158224717149  0.1038202525947156   F   F   F
  0.2088434130055390  0.8729707663358752  0.6038054905870425   F   F   F
  0.7085386820128790  0.8728349871361800  0.8963152746845253   F   F   F
  0.7915288497951138  0.3728158224717149  0.3961797474052844   F   F   F
  0.7086133726046029  0.6272447194278783  0.8964351307675642   F   F   F
  0.7915288497951138  0.1271841775282851  0.3961797474052844   F   F   F
  0.2010413266345239  0.0428271635220199  0.0290771958813778   F   F   F
  0.2989586733654761  0.5428271635220199  0.5290771958813778   F   F   F
  0.2010413266345239  0.4571728364779801  0.0290771958813778   F   F   F
  0.2988870900187734  0.9579988180286705  0.5280596040266374   F   F   F
  0.7990921217790614  0.9571722582385860  0.9708103316081420   F   F   F
  0.7010413266345239  0.4571728364779801  0.4709228041186222   F   F   F
  0.7989586733654761  0.5428271635220199  0.9709228041186222   F   F   F
  0.7010413266345239  0.0428271635220199  0.4709228041186222   F   F   F
  0.2968895493308423  0.9978563749150382  0.1470275059927886   F   F   F
  0.2031104506691577  0.4978563749150382  0.6470275059927815   F   F   F
  0.2968895493308423  0.5021436250849618  0.1470275059927886   F   F   F
  0.2031104506691577  0.0021436250849618  0.6470275059927815   F   F   F
  0.7031104506691577  0.0021436250849618  0.8529724940072185   F   F   F
  0.7968895493308423  0.5021436250849618  0.3529724940072114   F   F   F
  0.7031104506691577  0.4978563749150382  0.8529724940072185   F   F   F
  0.7968895493308423  0.9978563749150382  0.3529724940072114   F   F   F
  0.1089942560051327  0.1267462740242564  0.0958674480733634   F   F   F
  0.3902787228835294  0.6260015068024245  0.5976165813153784   F   F   F
  0.1089942560051327  0.3732537259757436  0.0958674480733634   F   F   F
  0.3894218835562029  0.8740638949234807  0.5984081424431054   F   F   F
  0.8911300559099402  0.8732483568968732  0.9038641130272396   F   F   F
  0.6089942560051327  0.3732537259757436  0.4041325519266366   F   F   F
  0.8909716288960610  0.6267294839988438  0.9039853351852756   F   F   F
  0.6089942560051327  0.1267462740242564  0.4041325519266366   F   F   F
  0.0831228757301545  0.0463555586530404  0.9432954022258713   F   F   F
  0.4168771242698455  0.5463555586530404  0.4432954022258713   F   F   F
  0.0831228757301545  0.4536444413469596  0.9432954022258713   F   F   F
  0.4172541668430867  0.9543361537052775  0.4437913624739593   F   F   F
  0.9168229861216517  0.9534255325112255  0.0569024647702747   F   F   F
  0.5831228757301545  0.4536444413469596  0.5567045977741287   F   F   F
  0.9168771242698455  0.5463555586530404  0.0567045977741287   F   F   F
  0.5831228757301545  0.0463555586530404  0.5567045977741287   F   F   F
  0.1289595153762306  0.0794086100630622  0.7630589808606629   F   F   F
  0.3710404846237694  0.5794086100630622  0.2630589808606629   F   F   F
  0.1289595153762306  0.4205913899369378  0.7630589808606629   F   F   F
  0.3709993518476935  0.9209271384202324  0.2631613058141298   F   F   F
  0.8709991177785383  0.9205040826403916  0.2371417431237646   F   F   F
  0.6289595153762306  0.4205913899369378  0.7369410191393371   F   F   F
  0.8710404846237694  0.5794086100630622  0.2369410191393371   F   F   F
  0.6289595153762306  0.0794086100630622  0.7369410191393371   F   F   F
  0.0734906194930076  0.9602654235314105  0.7910582447818655   F   F   F
  0.4264236799621770  0.4603034831418356  0.2908788493740602   F   F   F
  0.0735763200378230  0.5396965168581644  0.7908788493740531   F   F   F
  0.4264236799621770  0.0396965168581644  0.2908788493740602   F   F   F
  0.9264236799621770  0.0396965168581644  0.2091211506259398   F   F   F
  0.5735763200378230  0.5396965168581644  0.7091211506259469   F   F   F
  0.9264236799621770  0.4603034831418356  0.2091211506259398   F   F   F
  0.5738720719353338  0.9603035832804849  0.7091149792453990   F   F   F
  0.2164898181671191  0.1361625178643777  0.6465161981987251   F   F   F
  0.2833337733499306  0.6361223127592126  0.1462632857210622   F   F   F
  0.2164898181671191  0.3638374821356223  0.6465161981987251   F   F   F
  0.2836520855259224  0.8636255062998472  0.1466908531558104   F   F   F
  0.7828872594035019  0.8638367944847900  0.3533979230923521   F   F   F
  0.7164898181671191  0.3638374821356223  0.8534838018012749   F   F   F
  0.7829531137941359  0.6361044517815131  0.3536093873837558   F   F   F
  0.7164898181671191  0.1361625178643777  0.8534838018012749   F   F   F
  0.4961680769412951  0.8531771509233153  0.7129474982049544   F   F   F
  0.0041870730047435  0.3531357233755159  0.2140092002379745   F   F   F
  0.4963087253834289  0.6471024694546230  0.7136840188362328   F   F   F
  0.0041870730047435  0.1468642766244841  0.2140092002379745   F   F   F
  0.5041870730047435  0.1468642766244841  0.2859907997620255   F   F   F
  0.9958373008936690  0.6468982326761292  0.7859340122560283   F   F   F
  0.5041870730047435  0.3531357233755159  0.2859907997620255   F   F   F
  0.9960750071785043  0.8529209464941090  0.7858862787945213   F   F   F
  0.3786118358199815  0.8329695832320425  0.7870495940395088   F   F   F
  0.1223394308142645  0.3330694750354013  0.2858074615356969   F   F   F
  0.3782106315399361  0.6670557987642667  0.7864681981615291   F   F   F
  0.1223394308142645  0.1669305249645987  0.2858074615356969   F   F   F
  0.6223394308142645  0.1669305249645987  0.2141925384643031   F   F   F
  0.8777034588042980  0.6667926306652774  0.7138645795496501   F   F   F
  0.6223394308142645  0.3330694750354013  0.2141925384643031   F   F   F
  0.8778616363103566  0.8333479480727775  0.7137998867260933   F   F   F
  0.4244167972894672  0.7499923908676536  0.6484164432600181   F   F   F
  0.0759212098317121  0.2500000000000000  0.1472425182485750   F   F   F
  0.5759212098317121  0.2500000000000000  0.3527574817514250   F   F   F
  0.9238468020671036  0.7499964486391733  0.8523471345926978   F   F   F
  0.3174759390973279  0.8649290717874223  0.9554458294550869   F   F   F
  0.1824716471111429  0.3646363999312143  0.4553082923555465   F   F   F
  0.3174145764890852  0.6351714944716491  0.9553567820806421   F   F   F
  0.1824716471111429  0.1353636000687857  0.4553082923555465   F   F   F
  0.6824716471111429  0.1353636000687857  0.0446917076444535   F   F   F
  0.8165283861802948  0.6350061384052310  0.5446085630753927   F   F   F
  0.6824716471111429  0.3646363999312143  0.0446917076444535   F   F   F
  0.8166648252526088  0.8651264802589012  0.5445327068091785   F   F   F
  0.2481938080430126  0.8463312956469267  0.7902031294280718   F   F   F
  0.2524421241138057  0.3470288878372898  0.2906042087582890   F   F   F
  0.2478798749851450  0.6534522102475080  0.7901529595219898   F   F   F
  0.2524421241138057  0.1529711121627102  0.2906042087582890   F   F   F
  0.7524421241138057  0.1529711121627102  0.2093957912417110   F   F   F
  0.7475012798840339  0.6531875572978691  0.7096180025753895   F   F   F
  0.7524421241138057  0.3470288878372898  0.2093957912417110   F   F   F
  0.7475810917355687  0.8467546977236751  0.7095769738966879   F   F   F
  0.2951068558834677  0.7500007698848066  0.0496608215276737   F   F   F
  0.2047512101703362  0.2500000000000000  0.5502475789369754   F   F   F
  0.7047512101703362  0.2500000000000000  0.9497524210630175   F   F   F
  0.7977287165409521  0.7500971115078983  0.4493343287520659   F   F   F
  0.1959537349460660  0.8326964900079972  0.0066669543837747   F   F   F
  0.3039666124841744  0.3327166449111161  0.5062562090960796   F   F   F
  0.1959100821760771  0.6673134662583848  0.0063078808765624   F   F   F
  0.3039666124841744  0.1672833550888839  0.5062562090960796   F   F   F
  0.8039666124841744  0.1672833550888839  0.9937437909039204   F   F   F
  0.6955627499721118  0.6717209233029635  0.4925862418947986   F   F   F
  0.8039666124841744  0.3327166449111161  0.9937437909039204   F   F   F
  0.6957903316800156  0.8286520370426231  0.4925996344973100   F   F   F
  0.0931169659468196  0.7500597442532566  0.0203707303012166   F   F   F
  0.4068435254241223  0.2500000000000000  0.5199589040338424   F   F   F
  0.9068435254241223  0.2500000000000000  0.9800410959661576   F   F   F
  0.5881057625458297  0.7504084669824067  0.4782461867001899   F   F   F
  0.0809005197737349  0.8695401927692785  0.9343650104678574   F   F   F
  0.4191681511649463  0.3696157380695979  0.4342049483443873   F   F   F
  0.0807242528282828  0.6305119692321597  0.9344259945989393   F   F   F
  0.4191681511649463  0.1303842619304021  0.4342049483443873   F   F   F
  0.9191681511649392  0.1303842619304021  0.0657950516556127   F   F   F
  0.5823370406438215  0.6303869227389569  0.5661719092728177   F   F   F
  0.9191681511649392  0.3696157380695979  0.0657950516556127   F   F   F
  0.5822350263110820  0.8698672688439402  0.5653170773692437   F   F   F
  0.1218296163811345  0.8401827652469791  0.7477432434973608   F   F   F
  0.3785939221413273  0.3399016741142518  0.2475054947775277   F   F   F
  0.1215668760844082  0.6601109805657615  0.7479375690449643   F   F   F
  0.3785939221413273  0.1600983258857482  0.2475054947775277   F   F   F
  0.8785939221413201  0.1600983258857482  0.2524945052224723   F   F   F
  0.6213996513437223  0.6601247052019446  0.7530476430476298   F   F   F
  0.8785939221413201  0.3399016741142518  0.2524945052224723   F   F   F
  0.6215504336160365  0.8398313520954801  0.7524883543145506   F   F   F
  0.2028198430879087  0.7500773188463512  0.6705432413511119   F   F   F
  0.2968133864148328  0.2500000000000000  0.1713179004415224   F   F   F
  0.7968133864148328  0.2500000000000000  0.3286820995584776   F   F   F
  0.7031918335815206  0.7500209632736556  0.8293154407362309   F   F   F
  0.4240099490616913  0.0712238689892644  0.6879805273312769   F   F   F
  0.0759900509383087  0.5712238689892644  0.1879805273312769   F   F   F
  0.4240099490616913  0.4287761310107356  0.6879805273312769   F   F   F
  0.0759099255822235  0.9288998214595168  0.1881735881745996   F   F   F
  0.5760970366984495  0.9289777454348283  0.3116141016038370   F   F   F
  0.9240099490616913  0.4287761310107356  0.8120194726687231   F   F   F
  0.5759900509383087  0.5712238689892644  0.3120194726687231   F   F   F
  0.9240099490616913  0.0712238689892644  0.8120194726687231   F   F   F
  0.3227198167376812  0.0323507114762833  0.8432574132120010   F   F   F
  0.1772801832623188  0.5323507114762833  0.3432574132120010   F   F   F
  0.3227198167376812  0.4676492885237167  0.8432574132120010   F   F   F
  0.1772146045513949  0.9677081191038894  0.3434739486004901   F   F   F
  0.6773657600485166  0.9678425992492876  0.1563630065591681   F   F   F
  0.8227198167376812  0.4676492885237167  0.6567425867879990   F   F   F
  0.6772801832623188  0.5323507114762833  0.1567425867879990   F   F   F
  0.8227198167376812  0.0323507114762833  0.6567425867879990   F   F   F
  0.2779386767015382  0.0519583657721796  0.0611307184073340   F   F   F
  0.2220613232984618  0.5519583657721796  0.5611307184073340   F   F   F
  0.2779386767015382  0.4480416342278204  0.0611307184073340   F   F   F
  0.2221179406219917  0.9482534822380089  0.5610924033417461   F   F   F
  0.7222315783992173  0.9481214942852745  0.9387590495397333   F   F   F
  0.7779386767015382  0.4480416342278204  0.4388692815926660   F   F   F
  0.7220613232984618  0.5519583657721796  0.9388692815926660   F   F   F
  0.7779386767015382  0.0519583657721796  0.4388692815926660   F   F   F
  0.1225104503909904  0.0527779080613016  0.0479940299588080   F   F   F
  0.3774895496090096  0.5527779080612945  0.5479940299588080   F   F   F
  0.1225104503909904  0.4472220919386984  0.0479940299588080   F   F   F
  0.3773383123795995  0.9471933592964206  0.5477840756711672   F   F   F
  0.8775819805808354  0.9471603063340979  0.9519211011550510   F   F   F
  0.6225104503909904  0.4472220919386984  0.4520059700411920   F   F   F
  0.8774895496090096  0.5527779080612945  0.9520059700411920   F   F   F
  0.6225104503909904  0.0527779080613016  0.4520059700411920   F   F   F
  0.0722297752641694  0.0390952680378902  0.8235403254031510   F   F   F
  0.4277702247358306  0.5390952680378902  0.3235403254031510   F   F   F
  0.0722297752641694  0.4609047319621098  0.8235403254031510   F   F   F
  0.4276618907513097  0.9607641677547889  0.3239993614146215   F   F   F
  0.9277109194909556  0.9608936609122694  0.1765327136879620   F   F   F
  0.5722297752641694  0.4609047319621098  0.6764596745968490   F   F   F
  0.9277702247358306  0.5390952680378902  0.1764596745968490   F   F   F
  0.5722297752641694  0.0390952680378902  0.6764596745968490   F   F   F
  0.2011043077742869  0.0703822647950858  0.7135284737427909   F   F   F
  0.2988956922257131  0.5703822647950858  0.2135284737427909   F   F   F
  0.2011043077742869  0.4296177352049142  0.7135284737427909   F   F   F
  0.2988609504318234  0.9297740643364563  0.2136200762096934   F   F   F
  0.7988227609021976  0.9298062141698082  0.2862138245762367   F   F   F
  0.7011043077742869  0.4296177352049142  0.7864715262572091   F   F   F
  0.7988956922257131  0.5703822647950858  0.2864715262572091   F   F   F
  0.7011043077742869  0.0703822647950858  0.7864715262572091   F   F   F
  0.4222961074867655  0.8279774795078652  0.6853890548085317   F   F   F
  0.0776147133579599  0.3277153649932174  0.1851848138450478   F   F   F
  0.4223378840043708  0.6719506524842558  0.6853096913936483   F   F   F
  0.0776147133579599  0.1722846350067826  0.1851848138450478   F   F   F
  0.5776147133579599  0.1722846350067826  0.3148151861549522   F   F   F
  0.9223763694369111  0.6722207911144551  0.8146402932635297   F   F   F
  0.5776147133579599  0.3277153649932174  0.3148151861549522   F   F   F
  0.9225591194455305  0.8277362686726661  0.8145885272094304   F   F   F
  0.3173938939987551  0.8743531135034104  0.8346568325870365   F   F   F
  0.1830680121786585  0.3744867008663704  0.3347839836351412   F   F   F
  0.3172541937621602  0.6256574360816245  0.8344524141935636   F   F   F
  0.1830680121786585  0.1255132991336296  0.3347839836351412   F   F   F
  0.6830680121786585  0.1255132991336296  0.1652160163648588   F   F   F
  0.8167645349422017  0.6254534921753390  0.6653928912154470   F   F   F
  0.6830680121786585  0.3744867008663704  0.1652160163648588   F   F   F
  0.8168137449764501  0.8745696425931513  0.6654952427314811   F   F   F
  0.2727636308383268  0.8278866518835173  0.0397311757876082   F   F   F
  0.2273307924942145  0.3277299682844301  0.5397963552221228   F   F   F
  0.2725905053499105  0.6722082515168921  0.0394658882052568   F   F   F
  0.2273307924942145  0.1722700317155699  0.5397963552221228   F   F   F
  0.7273307924942145  0.1722700317155699  0.9602036447778772   F   F   F
  0.7728039375991145  0.6728233501445970  0.4598001472983455   F   F   F
  0.7273307924942145  0.3277299682844301  0.9602036447778772   F   F   F
  0.7728779304545483  0.8272030618839210  0.4599506488113931   F   F   F
  0.1170794031229718  0.8280032950735290  0.0232453038093894   F   F   F
  0.3829046392724536  0.3279865241180246  0.5228273843902258   F   F   F
  0.1171040079797621  0.6721217908517119  0.0230387180051252   F   F   F
  0.3829046392724536  0.1720134758819754  0.5228273843902258   F   F   F
  0.8829046392724536  0.1720134758819754  0.9771726156097742   F   F   F
  0.6164949742506920  0.6722796699898623  0.4766717964964684   F   F   F
  0.8829046392724536  0.3279865241180246  0.9771726156097742   F   F   F
  0.6170846109280888  0.8280858450271040  0.4761671591979351   F   F   F
  0.0685791973234586  0.8805223298757667  0.8152040922887096   F   F   F
  0.4316422255872467  0.3805306503245163  0.3150522314059216   F   F   F
  0.0684499391600681  0.6194981117209579  0.8151550144536230   F   F   F
  0.4316422255872467  0.1194693496754837  0.3150522314059216   F   F   F
  0.9316422255872467  0.1194693496754837  0.1849477685940784   F   F   F
  0.5684799473797923  0.6194244613615041  0.6852035897907101   F   F   F
  0.9316422255872467  0.3805306503245163  0.1849477685940784   F   F   F
  0.5686791286805359  0.8806026951402188  0.6847128456277289   F   F   F
  0.1955015928762265  0.8281680760540837  0.7032096764770088   F   F   F
  0.3049811923033445  0.3281471210548332  0.2034825387585641   F   F   F
  0.1951206531959571  0.6719836502060446  0.7032405721489994   F   F   F
  0.3049811923033445  0.1718528789451668  0.2034825387585641   F   F   F
  0.8049811923033445  0.1718528789451668  0.2965174612414359   F   F   F
  0.6951162735435616  0.6719601768186223  0.7969787058051097   F   F   F
  0.8049811923033445  0.3281471210548332  0.2965174612414359   F   F   F
  0.6950053122025039  0.8280554575691568  0.7969146413085682   F   F   F
  0.4575818588296272  0.7568406045898470  0.4268820803431126   F   F   F
  0.4586904634541398  0.7523264035949495  0.2577961634006769   T   T   T
  0.3880682443970969  0.7553624803571921  0.3490779024373651   T   T   T
  0.4518479589247875  0.7996468895095887  0.2169422372851315   T   T   T
  0.5119463517026475  0.7439693515031252  0.2693845915808666   T   T   T
  0.4399571613775564  0.7093566047163478  0.2148105077303910   T   T   T
  0.3438451437034118  0.7553750351942128  0.3025167439856986   T   T   T
  0.3721329078261277  0.7627059570548127  0.4419210654499778   T   T   T
 
  0.00000000E+00  0.00000000E+00  0.00000000E+00
  0.00000000E+00  0.00000000E+00  0.00000000E+00
  0.00000000E+00  0.00000000E+00  0.00000000E+00
  0.00000000E+00  0.00000000E+00  0.00000000E+00
  0.00000000E+00  0.00000000E+00  0.00000000E+00
  0.00000000E+00  0.00000000E+00  0.00000000E+00
  0.00000000E+00  0.00000000E+00  0.00000000E+00
  0.00000000E+00  0.00000000E+00  0.00000000E+00
  0.00000000E+00  0.00000000E+00  0.00000000E+00
  0.00000000E+00  0.00000000E+00  0.00000000E+00
  0.00000000E+00  0.00000000E+00  0.00000000E+00
  0.00000000E+00  0.00000000E+00  0.00000000E+00
  0.00000000E+00  0.00000000E+00  0.00000000E+00
  0.00000000E+00  0.00000000E+00  0.00000000E+00
  0.00000000E+00  0.00000000E+00  0.00000000E+00
  0.00000000E+00  0.00000000E+00  0.00000000E+00
  0.00000000E+00  0.00000000E+00  0.00000000E+00
  0.00000000E+00  0.00000000E+00  0.00000000E+00
  0.00000000E+00  0.00000000E+00  0.00000000E+00
  0.00000000E+00  0.00000000E+00  0.00000000E+00
  0.00000000E+00  0.00000000E+00  0.00000000E+00
  0.00000000E+00  0.00000000E+00  0.00000000E+00
  0.00000000E+00  0.00000000E+00  0.00000000E+00
  0.00000000E+00  0.00000000E+00  0.00000000E+00
  0.00000000E+00  0.00000000E+00  0.00000000E+00
  0.00000000E+00  0.00000000E+00  0.00000000E+00
  0.00000000E+00  0.00000000E+00  0.00000000E+00
  0.00000000E+00  0.00000000E+00  0.00000000E+00
  0.00000000E+00  0.00000000E+00  0.00000000E+00
  0.00000000E+00  0.00000000E+00  0.00000000E+00
  0.00000000E+00  0.00000000E+00  0.00000000E+00
  0.00000000E+00  0.00000000E+00  0.00000000E+00
  0.00000000E+00  0.00000000E+00  0.00000000E+00
  0.00000000E+00  0.00000000E+00  0.00000000E+00
  0.00000000E+00  0.00000000E+00  0.00000000E+00
  0.00000000E+00  0.00000000E+00  0.00000000E+00
  0.00000000E+00  0.00000000E+00  0.00000000E+00
  0.00000000E+00  0.00000000E+00  0.00000000E+00
  0.00000000E+00  0.00000000E+00  0.00000000E+00
  0.00000000E+00  0.00000000E+00  0.00000000E+00
  0.00000000E+00  0.00000000E+00  0.00000000E+00
  0.00000000E+00  0.00000000E+00  0.00000000E+00
  0.00000000E+00  0.00000000E+00  0.00000000E+00
  0.00000000E+00  0.00000000E+00  0.00000000E+00
  0.00000000E+00  0.00000000E+00  0.00000000E+00
  0.00000000E+00  0.00000000E+00  0.00000000E+00
  0.00000000E+00  0.00000000E+00  0.00000000E+00
  0.00000000E+00  0.00000000E+00  0.00000000E+00
  0.00000000E+00  0.00000000E+00  0.00000000E+00
  0.00000000E+00  0.00000000E+00  0.00000000E+00
  0.00000000E+00  0.00000000E+00  0.00000000E+00
  0.00000000E+00  0.00000000E+00  0.00000000E+00
  0.00000000E+00  0.00000000E+00  0.00000000E+00
  0.00000000E+00  0.00000000E+00  0.00000000E+00
  0.00000000E+00  0.00000000E+00  0.00000000E+00
  0.00000000E+00  0.00000000E+00  0.00000000E+00
  0.00000000E+00  0.00000000E+00  0.00000000E+00
  0.00000000E+00  0.00000000E+00  0.00000000E+00
  0.00000000E+00  0.00000000E+00  0.00000000E+00
  0.00000000E+00  0.00000000E+00  0.00000000E+00
  0.00000000E+00  0.00000000E+00  0.00000000E+00
  0.00000000E+00  0.00000000E+00  0.00000000E+00
  0.00000000E+00  0.00000000E+00  0.00000000E+00
  0.00000000E+00  0.00000000E+00  0.00000000E+00
  0.00000000E+00  0.00000000E+00  0.00000000E+00
  0.00000000E+00  0.00000000E+00  0.00000000E+00
  0.00000000E+00  0.00000000E+00  0.00000000E+00
  0.00000000E+00  0.00000000E+00  0.00000000E+00
  0.00000000E+00  0.00000000E+00  0.00000000E+00
  0.00000000E+00  0.00000000E+00  0.00000000E+00
  0.00000000E+00  0.00000000E+00  0.00000000E+00
  0.00000000E+00  0.00000000E+00  0.00000000E+00
  0.00000000E+00  0.00000000E+00  0.00000000E+00
  0.00000000E+00  0.00000000E+00  0.00000000E+00
  0.00000000E+00  0.00000000E+00  0.00000000E+00
  0.00000000E+00  0.00000000E+00  0.00000000E+00
  0.00000000E+00  0.00000000E+00  0.00000000E+00
  0.00000000E+00  0.00000000E+00  0.00000000E+00
  0.00000000E+00  0.00000000E+00  0.00000000E+00
  0.00000000E+00  0.00000000E+00  0.00000000E+00
  0.00000000E+00  0.00000000E+00  0.00000000E+00
  0.00000000E+00  0.00000000E+00  0.00000000E+00
  0.00000000E+00  0.00000000E+00  0.00000000E+00
  0.00000000E+00  0.00000000E+00  0.00000000E+00
  0.00000000E+00  0.00000000E+00  0.00000000E+00
  0.00000000E+00  0.00000000E+00  0.00000000E+00
  0.00000000E+00  0.00000000E+00  0.00000000E+00
  0.00000000E+00  0.00000000E+00  0.00000000E+00
  0.00000000E+00  0.00000000E+00  0.00000000E+00
  0.00000000E+00  0.00000000E+00  0.00000000E+00
  0.00000000E+00  0.00000000E+00  0.00000000E+00
  0.00000000E+00  0.00000000E+00  0.00000000E+00
  0.00000000E+00  0.00000000E+00  0.00000000E+00
  0.00000000E+00  0.00000000E+00  0.00000000E+00
  0.00000000E+00  0.00000000E+00  0.00000000E+00
  0.00000000E+00  0.00000000E+00  0.00000000E+00
  0.00000000E+00  0.00000000E+00  0.00000000E+00
  0.00000000E+00  0.00000000E+00  0.00000000E+00
  0.00000000E+00  0.00000000E+00  0.00000000E+00
  0.00000000E+00  0.00000000E+00  0.00000000E+00
  0.00000000E+00  0.00000000E+00  0.00000000E+00
  0.00000000E+00  0.00000000E+00  0.00000000E+00
  0.00000000E+00  0.00000000E+00  0.00000000E+00
  0.00000000E+00  0.00000000E+00  0.00000000E+00
  0.00000000E+00  0.00000000E+00  0.00000000E+00
  0.00000000E+00  0.00000000E+00  0.00000000E+00
  0.00000000E+00  0.00000000E+00  0.00000000E+00
  0.00000000E+00  0.00000000E+00  0.00000000E+00
  0.00000000E+00  0.00000000E+00  0.00000000E+00
  0.00000000E+00  0.00000000E+00  0.00000000E+00
  0.00000000E+00  0.00000000E+00  0.00000000E+00
  0.00000000E+00  0.00000000E+00  0.00000000E+00
  0.00000000E+00  0.00000000E+00  0.00000000E+00
  0.00000000E+00  0.00000000E+00  0.00000000E+00
  0.00000000E+00  0.00000000E+00  0.00000000E+00
  0.00000000E+00  0.00000000E+00  0.00000000E+00
  0.00000000E+00  0.00000000E+00  0.00000000E+00
  0.00000000E+00  0.00000000E+00  0.00000000E+00
  0.00000000E+00  0.00000000E+00  0.00000000E+00
  0.00000000E+00  0.00000000E+00  0.00000000E+00
  0.00000000E+00  0.00000000E+00  0.00000000E+00
  0.00000000E+00  0.00000000E+00  0.00000000E+00
  0.00000000E+00  0.00000000E+00  0.00000000E+00
  0.00000000E+00  0.00000000E+00  0.00000000E+00
  0.00000000E+00  0.00000000E+00  0.00000000E+00
  0.00000000E+00  0.00000000E+00  0.00000000E+00
  0.00000000E+00  0.00000000E+00  0.00000000E+00
  0.00000000E+00  0.00000000E+00  0.00000000E+00
  0.00000000E+00  0.00000000E+00  0.00000000E+00
  0.00000000E+00  0.00000000E+00  0.00000000E+00
  0.00000000E+00  0.00000000E+00  0.00000000E+00
  0.00000000E+00  0.00000000E+00  0.00000000E+00
  0.00000000E+00  0.00000000E+00  0.00000000E+00
  0.00000000E+00  0.00000000E+00  0.00000000E+00
  0.00000000E+00  0.00000000E+00  0.00000000E+00
  0.00000000E+00  0.00000000E+00  0.00000000E+00
  0.00000000E+00  0.00000000E+00  0.00000000E+00
  0.00000000E+00  0.00000000E+00  0.00000000E+00
  0.00000000E+00  0.00000000E+00  0.00000000E+00
  0.00000000E+00  0.00000000E+00  0.00000000E+00
  0.00000000E+00  0.00000000E+00  0.00000000E+00
  0.00000000E+00  0.00000000E+00  0.00000000E+00
  0.00000000E+00  0.00000000E+00  0.00000000E+00
  0.00000000E+00  0.00000000E+00  0.00000000E+00
  0.00000000E+00  0.00000000E+00  0.00000000E+00
  0.00000000E+00  0.00000000E+00  0.00000000E+00
  0.00000000E+00  0.00000000E+00  0.00000000E+00
  0.00000000E+00  0.00000000E+00  0.00000000E+00
  0.00000000E+00  0.00000000E+00  0.00000000E+00
  0.00000000E+00  0.00000000E+00  0.00000000E+00
  0.00000000E+00  0.00000000E+00  0.00000000E+00
  0.00000000E+00  0.00000000E+00  0.00000000E+00
  0.00000000E+00  0.00000000E+00  0.00000000E+00
  0.00000000E+00  0.00000000E+00  0.00000000E+00
  0.00000000E+00  0.00000000E+00  0.00000000E+00
  0.00000000E+00  0.00000000E+00  0.00000000E+00
  0.00000000E+00  0.00000000E+00  0.00000000E+00
  0.00000000E+00  0.00000000E+00  0.00000000E+00
  0.00000000E+00  0.00000000E+00  0.00000000E+00
  0.00000000E+00  0.00000000E+00  0.00000000E+00
  0.00000000E+00  0.00000000E+00  0.00000000E+00
  0.00000000E+00  0.00000000E+00  0.00000000E+00
  0.00000000E+00  0.00000000E+00  0.00000000E+00
  0.00000000E+00  0.00000000E+00  0.00000000E+00