O  Si Ru C  H                           
   1.00000000000000     
    20.3096463179830877    0.0000000000000000    0.0000000000000000
     0.0000000000000000   19.8625212307842212    0.0000000000000000
     0.0000000000000000    0.0000000000000000   13.3711533343531652
   O    Si   Ru   C    H 
   192    96     3     2     5
Selective dynamics
Direct
  0.5030136555660931  0.0738043900348018  0.7058292711192991   F   F   F
  0.9969800072819410  0.5701667345555066  0.2100309967290812   F   F   F
  0.5028817625691033  0.4264141467172351  0.7055390588523096   F   F   F
  0.9968811331216401  0.9299536505523704  0.2101347869034953   F   F   F
  0.4974218021281374  0.9257523682659183  0.2921152569746326   F   F   F
  0.0034431473335417  0.4286316464259698  0.7894189150040205   F   F   F
  0.4977100910608954  0.5734319358317350  0.2929711583900669   F   F   F
  0.0031386040114043  0.0714125877363188  0.7893348994690541   F   F   F
  0.3890953390225391  0.0658080460063388  0.7984580430956925   F   F   F
  0.1126217948675716  0.5675492232941792  0.2978039385186619   F   F   F
  0.3887959189063892  0.4345104019804396  0.7986640022722966   F   F   F
  0.1130465425336880  0.9324439032138869  0.2981302447114729   F   F   F
  0.6112207980133846  0.9349393253121363  0.1998678719217466   F   F   F
  0.8874976963880599  0.4317945516285917  0.7019206588413311   F   F   F
  0.6112400537643978  0.5651036620368757  0.2001230412762283   F   F   F
  0.8875494992679620  0.0682106351269738  0.7020000440090755   F   F   F
  0.3999362193206508  0.1401236185411321  0.6346285033775843   F   F   F
  0.0969745171899064  0.6386793488919409  0.1326684635126867   F   F   F
  0.3999600794340807  0.3602919677187657  0.6348199518871525   F   F   F
  0.0969816982023417  0.8613593142397704  0.1330635760036003   F   F   F
  0.6031554533301815  0.8635063302128145  0.3650308893637018   F   F   F
  0.9036813231642995  0.3611859859305753  0.8672573167872244   F   F   F
  0.6024057977038026  0.6367941073041976  0.3649219169037607   F   F   F
  0.9037134929132122  0.1388024074230856  0.8672353089691001   F   F   F
  0.4052170024256228  0.0060502200704846  0.6215700730949223   F   F   F
  0.0957813738350524  0.5043482066094853  0.1236697425661717   F   F   F
  0.4049619016202115  0.4943371917511854  0.6219428484744611   F   F   F
  0.0958350106191830  0.9957978067012689  0.1235485806968626   F   F   F
  0.5939348900469739  0.9973091806396894  0.3730347386452593   F   F   F
  0.9055076506230151  0.4957257142894846  0.8758974538704436   F   F   F
  0.5942826799220100  0.5028707813095536  0.3731326331858611   F   F   F
  0.9054428317713956  0.0043405149153344  0.8759198690514935   F   F   F
  0.3236164413235016  0.0393607633132191  0.9646252732934144   F   F   F
  0.1756767378145412  0.5373589720724397  0.4649145662869216   F   F   F
  0.3235984662979519  0.4608468650943465  0.9645023008689790   F   F   F
  0.1755078885239811  0.9625754564132052  0.4651387718125832   F   F   F
  0.6778516412017694  0.9622276267099181  0.0352662478054953   F   F   F
  0.8238949840488345  0.4615723490571639  0.5349782743746232   F   F   F
  0.6780283882147913  0.5378059452759985  0.0346525998214204   F   F   F
  0.8239478677385677  0.0384165716905258  0.5350903025534848   F   F   F
  0.3189067228686682  0.9539017588897067  0.8086329870093749   F   F   F
  0.1786908691467843  0.4539389239894973  0.3065283699343411   F   F   F
  0.3191821198973841  0.5459640647631190  0.8087237076656564   F   F   F
  0.1786652923181649  0.0463271659073570  0.3066267961828757   F   F   F
  0.6820714120147500  0.0464575829417910  0.1920085744314619   F   F   F
  0.8213972758954355  0.5456948018991170  0.6934931763611587   F   F   F
  0.6819321458181875  0.4534393552990323  0.1922397892754688   F   F   F
  0.8212263608998001  0.9544348997954231  0.6935831930031995   F   F   F
  0.2577772666154772  0.0707159259008208  0.8009098316647965   F   F   F
  0.2440507136599450  0.5685695404899604  0.3043658354371175   F   F   F
  0.2579501818229417  0.4292991009717468  0.8011369966620236   F   F   F
  0.2448142567134255  0.9318156522818768  0.3042613829319976   F   F   F
  0.7426365138134940  0.9295320630587298  0.1990070840054443   F   F   F
  0.7560467976249470  0.4302809732411177  0.6969739033541913   F   F   F
  0.7428219454883802  0.5706250959730497  0.1993800304792970   F   F   F
  0.7560555104307980  0.0697896395277695  0.6969685973962356   F   F   F
  0.2918310024971262  0.1261456069535569  0.1068307046355272   F   F   F
  0.2084432048060876  0.6249204236553680  0.6067103013025914   F   F   F
  0.2918289028147356  0.3740007276237023  0.1066909753703982   F   F   F
  0.2083744525868596  0.8754166147258218  0.6070585296484552   F   F   F
  0.7093640841891116  0.8733771443514300  0.8954198274869256   F   F   F
  0.7911767009260373  0.3754918430993825  0.3929296937015394   F   F   F
  0.7091733487841481  0.6263931060605188  0.8952493073093351   F   F   F
  0.7912240861806836  0.1244851384243120  0.3929006395091292   F   F   F
  0.1999013894934194  0.0450594957039741  0.0269643756245230   F   F   F
  0.2989835360434654  0.5415746582829826  0.5292459538097489   F   F   F
  0.1999390250588817  0.4550553928221532  0.0271914611256463   F   F   F
  0.2990806077069834  0.9583056668465417  0.5299458094044667   F   F   F
  0.8015380698726560  0.9554814862260343  0.9713483262919240   F   F   F
  0.7009722634071878  0.4591943705120869  0.4692298722449380   F   F   F
  0.8014216899954434  0.5446340808931041  0.9710126984875913   F   F   F
  0.7006422470804239  0.0408078638385945  0.4692307181868216   F   F   F
  0.2927773444095934  0.9951065023539343  0.1456203249239039   F   F   F
  0.2040940432408718  0.4947594273408171  0.6477862248462714   F   F   F
  0.2926745234584871  0.5042942168532178  0.1451909670378910   F   F   F
  0.2040432305870610  0.0051021759777683  0.6473227977373668   F   F   F
  0.7070062985425594  0.0028621112796898  0.8524306885653985   F   F   F
  0.7971851639745751  0.5056922683158263  0.3529156105889868   F   F   F
  0.7070783364677595  0.4973101974284404  0.8521918178865135   F   F   F
  0.7972386009276633  0.9942823760862609  0.3526864646067267   F   F   F
  0.1085514195274584  0.1281970976143256  0.0977250164206751   F   F   F
  0.3886142938988613  0.6255641153798805  0.6020866989360272   F   F   F
  0.1086845781208581  0.3720324900711276  0.0976407027381612   F   F   F
  0.3891217333734573  0.8750009411788682  0.6027033653002007   F   F   F
  0.8929361216871996  0.8724492870401264  0.9012998795592679   F   F   F
  0.6104138826090661  0.3717868727319740  0.4053764441177350   F   F   F
  0.8930182793605468  0.6276244800925994  0.9011402906727426   F   F   F
  0.6105690199302245  0.1282734452276770  0.4057834552294537   F   F   F
  0.0806811198714357  0.0483200458948900  0.9454196220535209   F   F   F
  0.4171526610382088  0.5500344290923920  0.4448343839271658   F   F   F
  0.0808226586994749  0.4516775468198091  0.9455306277003359   F   F   F
  0.4172469940007204  0.9495425882706456  0.4439282748259217   F   F   F
  0.9198425148093250  0.9518339190309959  0.0539204406562206   F   F   F
  0.5830092042005646  0.4548149143129052  0.5550858906517178   F   F   F
  0.9198932754331963  0.5482147618161690  0.0539997826311520   F   F   F
  0.5832193775810239  0.0454229444312659  0.5541868404196677   F   F   F
  0.1303593414108590  0.0808043639428320  0.7672578629957911   F   F   F
  0.3707439470240388  0.5765904335988239  0.2615928663671880   F   F   F
  0.1304481276436178  0.4194267089199144  0.7670784705583955   F   F   F
  0.3709524704818605  0.9225252156420538  0.2600408332088122   F   F   F
  0.8703519306561489  0.9191396581242302  0.2319106708570118   F   F   F
  0.6289697532440286  0.4250266264286822  0.7354422951918735   F   F   F
  0.8703155645003875  0.5808361726900628  0.2319005443820572   F   F   F
  0.6292138588479972  0.0753766419912978  0.7357703296820262   F   F   F
  0.0772127425636597  0.9603585739675324  0.7943750492837793   F   F   F
  0.4279962250518636  0.4604479056825852  0.2967021099978737   F   F   F
  0.0770454082698393  0.5395728405929390  0.7943605925929731   F   F   F
  0.4275802153366755  0.0385592478081875  0.2973362052942790   F   F   F
  0.9218408781755869  0.0393301157892907  0.2053943584092011   F   F   F
  0.5683109906793575  0.5419436121520320  0.7050717938936089   F   F   F
  0.9217698430621084  0.4607300935113372  0.2053281808249920   F   F   F
  0.5686938663909515  0.9579243841181935  0.7047850651985001   F   F   F
  0.2140551078791901  0.1396135441491566  0.6476946662195857   F   F   F
  0.2829843206618108  0.6384978558047294  0.1489009577617892   F   F   F
  0.2140775632787637  0.3607156622182259  0.6476582635511861   F   F   F
  0.2825328077535900  0.8615961954084028  0.1501615717348201   F   F   F
  0.7866979535900214  0.8599300531082577  0.3520782679821366   F   F   F
  0.7123011088006166  0.3626893389027970  0.8519358099019883   F   F   F
  0.7868771355994468  0.6399223845468498  0.3513879147791954   F   F   F
  0.7123207211778038  0.1374692240368205  0.8519241141453051   F   F   F
  0.4994630695776863  0.8455009028122262  0.7092508140609226   F   F   F
  0.0027206885582274  0.3559667171810048  0.2143666430219682   F   F   F
  0.4987197773409164  0.6552853150273634  0.7075610834724912   F   F   F
  0.0028270172507590  0.1441123070183963  0.2143843893156969   F   F   F
  0.5032512340823843  0.1471787388969332  0.2905063818045690   F   F   F
  0.9987405932728137  0.6461006662852569  0.7837220281389534   F   F   F
  0.5035613700436414  0.3525339473911089  0.2906306076487937   F   F   F
  0.9987855431789114  0.8541719324604884  0.7839012841548865   F   F   F
  0.3836428725635770  0.8379141312118321  0.7956798783230283   F   F   F
  0.1198383063591919  0.3349842639396527  0.2890721260537461   F   F   F
  0.3839609179764807  0.6625748871436414  0.7940336119059310   F   F   F
  0.1198294354229787  0.1650134172245004  0.2890254528178104   F   F   F
  0.6199150370639970  0.1636142916603873  0.2128641567320884   F   F   F
  0.8815219696531074  0.6640282063956775  0.7096048224455345   F   F   F
  0.6199902465593539  0.3364336206935690  0.2129236661879048   F   F   F
  0.8815149592118203  0.8360973632747601  0.7097436910547898   F   F   F
  0.4138092766826986  0.7500975210008107  0.6497466992245080   F   F   F
  0.0730042577548815  0.2500294491514694  0.1529269530134201   F   F   F
  0.5776719380883293  0.2499936175756261  0.3506806874324155   F   F   F
  0.9262211623180008  0.7499065747779738  0.8457516590884566   F   F   F
  0.3153772318155958  0.8666055340341146  0.9577497484863571   F   F   F
  0.1828578217581693  0.3674055894108150  0.4557700542205296   F   F   F
  0.3155689920353595  0.6337222943051657  0.9569956415683407   F   F   F
  0.1827683917768965  0.1327218002399988  0.4557834567723660   F   F   F
  0.6824005410418152  0.1349902153527509  0.0448013514478163   F   F   F
  0.8173580544359424  0.6317491559626802  0.5435085447379038   F   F   F
  0.6824434302706734  0.3649877866279141  0.0448110199187681   F   F   F
  0.8173682763100842  0.8680207762321501  0.5433440701251300   F   F   F
  0.2531442087877522  0.8398252308016794  0.7877434406010408   F   F   F
  0.2504186126986170  0.3423753040650723  0.2899746551951736   F   F   F
  0.2529726943634856  0.6601543536742653  0.7872119688841295   F   F   F
  0.2503991075255954  0.1577161997234811  0.2900518420810627   F   F   F
  0.7504384447182915  0.1592088421299351  0.2096526268992562   F   F   F
  0.7511670862413524  0.6569581636222992  0.7107186870608544   F   F   F
  0.7504396636095407  0.3407692644812457  0.2098012931299209   F   F   F
  0.7512129602335946  0.8429793663439256  0.7108963119501652   F   F   F
  0.2953638376613554  0.7501925807084433  0.0489275287012063   F   F   F
  0.2021829491540501  0.2502359787891066  0.5429672312824749   F   F   F
  0.7051580352240947  0.2501485043451837  0.9515692450598934   F   F   F
  0.8006623839237363  0.7501088159392424  0.4572963719704575   F   F   F
  0.1945514593578750  0.8319674278595102  0.0088444836291401   F   F   F
  0.3035150326619771  0.3323266872201387  0.5083268683327091   F   F   F
  0.1948678054392303  0.6680801769432776  0.0088969204285689   F   F   F
  0.3034681302156343  0.1678203287946118  0.5083640952219568   F   F   F
  0.8034723021449182  0.1646530919972520  0.9889610783436922   F   F   F
  0.6973404322145171  0.6697974163967118  0.4907339109307642   F   F   F
  0.8034159953633235  0.3353889117063176  0.9889873737305024   F   F   F
  0.6976438063671750  0.8296459556417801  0.4915853809036648   F   F   F
  0.0917091728469401  0.7497976693293538  0.0255520170802370   F   F   F
  0.4063043069874723  0.2502183564660641  0.5245477929075548   F   F   F
  0.9046405363522680  0.2500351412173174  0.9752102065170689   F   F   F
  0.5935760403899124  0.7494009823038255  0.4687362709206795   F   F   F
  0.0797687461617116  0.8692376271113886  0.9375428629226477   F   F   F
  0.4189534087693545  0.3697518296109052  0.4396297108092284   F   F   F
  0.0799074269252884  0.6310798017825263  0.9376725891573869   F   F   F
  0.4190448310043138  0.1301444387052442  0.4390440292619928   F   F   F
  0.9190373443675455  0.1316118807014988  0.0636812060281784   F   F   F
  0.5835227265095568  0.6316214038428427  0.5604880827146701   F   F   F
  0.9191159075270363  0.3684495269743593  0.0638782264171880   F   F   F
  0.5829792882807254  0.8678750230174614  0.5611995255044846   F   F   F
  0.1252373039124777  0.8401188213113784  0.7541012367344564   F   F   F
  0.3772857020931468  0.3419044455784572  0.2524854220008237   F   F   F
  0.1252971499156885  0.6598336227963557  0.7534669547463437   F   F   F
  0.3775945543531947  0.1581227171183670  0.2527099992718789   F   F   F
  0.8773748900602385  0.1607782359010983  0.2498812888163400   F   F   F
  0.6238719666225947  0.6588478229993484  0.7490751947194951   F   F   F
  0.8773735513706811  0.3392827728102858  0.2498979158517685   F   F   F
  0.6241446205621983  0.8411997189725255  0.7493821272072267   F   F   F
  0.2007174032710708  0.7499153640474603  0.6643897445518192   F   F   F
  0.3013326072086429  0.2501469013091651  0.1691863918377905   F   F   F
  0.7993106597064710  0.2501543204162360  0.3356947127454646   F   F   F
  0.7014020106891437  0.7498236871590223  0.8321132458908806   F   F   F
  0.4240793073113736  0.0704671567394328  0.6886927652871151   F   F   F
  0.0760292486789922  0.5697530564463023  0.1900484801700770   F   F   F
  0.4240707998590665  0.4297303347957282  0.6889400810648283   F   F   F
  0.0758280535751510  0.9305868734486111  0.1901546322743357   F   F   F
  0.5767486406679936  0.9307614351931903  0.3085108308963029   F   F   F
  0.9250228249260815  0.4294513343245185  0.8095234016060004   F   F   F
  0.5758247426125465  0.5687692111991964  0.3077412240236654   F   F   F
  0.9250910178946583  0.0706088265207327  0.8096094661326561   F   F   F
  0.3221712471194849  0.0326061230428749  0.8439250311161999   F   F   F
  0.1778258961400709  0.5316064140076264  0.3442815375661255   F   F   F
  0.3221533207012683  0.4677445916432319  0.8440197852567835   F   F   F
  0.1779741227906655  0.9682391347019106  0.3447640714002915   F   F   F
  0.6780536792360081  0.9681831476775429  0.1558998879297633   F   F   F
  0.8223275569004969  0.4671158611138324  0.6562424400406499   F   F   F
  0.6781567367442918  0.5317112485491648  0.1559735910376645   F   F   F
  0.8221472087580324  0.0329017506388709  0.6560267955347925   F   F   F
  0.2763855109255431  0.0515730242853891  0.0617840599012141   F   F   F
  0.2220763803592760  0.5497856740934495  0.5624334159145405   F   F   F
  0.2764469995879111  0.4485402302871435  0.0617005073307340   F   F   F
  0.2219723067814243  0.9505126440316474  0.5627884868279125   F   F   F
  0.7242057818993004  0.9483677065657474  0.9377962468121268   F   F   F
  0.7780454627418649  0.4502738999978249  0.4371151964596223   F   F   F
  0.7242750491261702  0.5518654879834060  0.9376962199629162   F   F   F
  0.7778638144635934  0.0499585212903497  0.4372966527338349   F   F   F
  0.1217253946356038  0.0541764215382585  0.0486063544102180   F   F   F
  0.3772328188380243  0.5532592837095933  0.5488072402131223   F   F   F
  0.1217018723186669  0.4455953306148217  0.0485759507369039   F   F   F
  0.3771470035589957  0.9472657402901632  0.5491546462860271   F   F   F
  0.8796931636178371  0.9460252109365115  0.9503767914466650   F   F   F
  0.6226933033149109  0.4470146556007606  0.4506970488415831   F   F   F
  0.8796661220663182  0.5539068971093215  0.9499611604242943   F   F   F
  0.6225061542257251  0.0525035599281765  0.4501320031491218   F   F   F
  0.0731591272961509  0.0396917263206475  0.8251601308654131   F   F   F
  0.4281619880113468  0.5401182827122142  0.3255314580355630   F   F   F
  0.0730460060144225  0.4602185023920313  0.8251293847148986   F   F   F
  0.4276530064696047  0.9590412835216782  0.3247742673541154   F   F   F
  0.9275072893491085  0.9607010921614574  0.1745936635884107   F   F   F
  0.5711160389658687  0.4627578827897167  0.6741812336389614   F   F   F
  0.9270626955920349  0.5393262226291355  0.1743919983532578   F   F   F
  0.5712476816308865  0.0368761192471823  0.6745043443906766   F   F   F
  0.2015682794992841  0.0730058602944652  0.7146161986710524   F   F   F
  0.2977752847537900  0.5713110823512366  0.2147741421957647   F   F   F
  0.2014898242726844  0.4270121087287819  0.7144620399504475   F   F   F
  0.2984305854107276  0.9287050506882863  0.2149096820426735   F   F   F
  0.7990508854605451  0.9265799600035933  0.2855731706774165   F   F   F
  0.7014164581080138  0.4295577506803525  0.7851000241552768   F   F   F
  0.7991192774286304  0.5729591612719744  0.2849640979671619   F   F   F
  0.7014241028961479  0.0705497027507889  0.7852158619220049   F   F   F
  0.4224333675543122  0.8285010346444182  0.6906377580196263   F   F   F
  0.0759221888114681  0.3283355811331390  0.1880569337173554   F   F   F
  0.4216294232693443  0.6724180187954261  0.6886593861754378   F   F   F
  0.0759181641931974  0.1717374601107267  0.1877984361162461   F   F   F
  0.5776935992547081  0.1718592954503819  0.3151994635447792   F   F   F
  0.9252194567351282  0.6719713559862441  0.8108326642222607   F   F   F
  0.5774849270894933  0.3282120955061316  0.3152775246982600   F   F   F
  0.9252201723519278  0.8283482759525569  0.8107514002518172   F   F   F
  0.3173873336036692  0.8748839285687211  0.8376115361329539   F   F   F
  0.1825514641379726  0.3747195855688688  0.3349066990578677   F   F   F
  0.3174254752958632  0.6256021044952647  0.8370307640909473   F   F   F
  0.1828021222354792  0.1253893637733157  0.3348125560199051   F   F   F
  0.6838270112212541  0.1263041835084309  0.1653690561350416   F   F   F
  0.8177880717697690  0.6245742148079216  0.6645183835113357   F   F   F
  0.6837098926412892  0.3736449131924431  0.1653211989506360   F   F   F
  0.8180067311508878  0.8754750835174647  0.6639909328329310   F   F   F
  0.2717781412983555  0.8272919186266066  0.0412770248633549   F   F   F
  0.2259438703600480  0.3276360565843959  0.5392550592839527   F   F   F
  0.2721746665193621  0.6724630680224379  0.0415980730104692   F   F   F
  0.2260231735194367  0.1724540574663749  0.5393087641974148   F   F   F
  0.7265751578086039  0.1718979286830944  0.9589950745436298   F   F   F
  0.7749618430080005  0.6736219577060325  0.4611618665604453   F   F   F
  0.7265993850019541  0.3281200551049537  0.9593876748789683   F   F   F
  0.7749086997456942  0.8266115758611789  0.4610398596972303   F   F   F
  0.1159320666042305  0.8277616547565572  0.0265428992098862   F   F   F
  0.3817689905549244  0.3280429295192988  0.5270787182329997   F   F   F
  0.1155180013619059  0.6720227325426436  0.0264810947314373   F   F   F
  0.3817434178774235  0.1719634781749733  0.5273494103880054   F   F   F
  0.8825610416275325  0.1716494025214388  0.9735638446461721   F   F   F
  0.6192875230976327  0.6725128475259723  0.4723733963190142   F   F   F
  0.8824635587049769  0.3283517472419177  0.9734805761162448   F   F   F
  0.6192471109210373  0.8278886576131228  0.4717505708660781   F   F   F
  0.0705704639636338  0.8810087041452590  0.8174069971492983   F   F   F
  0.4314213957613831  0.3809232442313473  0.3204448483025146   F   F   F
  0.0707216488942919  0.6191046283951280  0.8173882335838343   F   F   F
  0.4311848579036237  0.1179933872759946  0.3201359633528966   F   F   F
  0.9297911902167115  0.1191855489066214  0.1827940989246173   F   F   F
  0.5694687642848493  0.6216427966017832  0.6798312673606119   F   F   F
  0.9299484017485966  0.3806073160559436  0.1827828054828515   F   F   F
  0.5691913741578247  0.8783467819097197  0.6799302832674314   F   F   F
  0.1967885749216123  0.8271922885708634  0.7027831089582222   F   F   F
  0.3052053866486091  0.3279613809527433  0.2048569453687676   F   F   F
  0.1968093083917992  0.6727796485947550  0.7025393460513740   F   F   F
  0.3052121786744451  0.1719172185815765  0.2047792384284151   F   F   F
  0.8047625465833548  0.1726667498707712  0.2972125564159995   F   F   F
  0.6960843209434628  0.6722469531562680  0.7963229065899213   F   F   F
  0.8046155488529791  0.3271368439189715  0.2971064423655463   F   F   F
  0.6960295806588164  0.8277229061828280  0.7964206011407100   F   F   F
  0.4550057433093215  0.7249001250091780  0.2921729397144119   F   F   F
  0.3450079645256281  0.7519835882818029  0.3010140163787085   F   F   F
  0.3885544700838182  0.7624170591633330  0.4528456482236081   F   F   F
  0.5125210910760956  0.7587281940059754  0.1956746012615298   T   T   T
  0.5155898809440416  0.8040605655155844  0.1063937567777415   T   T   T
  0.4952617046384091  0.7780698150882586  0.0400515233166843   T   T   T
  0.5609499726998308  0.7382209556781376  0.2230227596300622   T   T   T
  0.5664164407365462  0.8196971214798339  0.0880623171589434   T   T   T
  0.4856152268886902  0.8495168579639838  0.1181293969754691   T   T   T
  0.4540627628045470  0.7114761616273810  0.1667106277366159   T   T   T
 
  0.00000000E+00  0.00000000E+00  0.00000000E+00
  0.00000000E+00  0.00000000E+00  0.00000000E+00
  0.00000000E+00  0.00000000E+00  0.00000000E+00
  0.00000000E+00  0.00000000E+00  0.00000000E+00
  0.00000000E+00  0.00000000E+00  0.00000000E+00
  0.00000000E+00  0.00000000E+00  0.00000000E+00
  0.00000000E+00  0.00000000E+00  0.00000000E+00
  0.00000000E+00  0.00000000E+00  0.00000000E+00
  0.00000000E+00  0.00000000E+00  0.00000000E+00
  0.00000000E+00  0.00000000E+00  0.00000000E+00
  0.00000000E+00  0.00000000E+00  0.00000000E+00
  0.00000000E+00  0.00000000E+00  0.00000000E+00
  0.00000000E+00  0.00000000E+00  0.00000000E+00
  0.00000000E+00  0.00000000E+00  0.00000000E+00
  0.00000000E+00  0.00000000E+00  0.00000000E+00
  0.00000000E+00  0.00000000E+00  0.00000000E+00
  0.00000000E+00  0.00000000E+00  0.00000000E+00
  0.00000000E+00  0.00000000E+00  0.00000000E+00
  0.00000000E+00  0.00000000E+00  0.00000000E+00
  0.00000000E+00  0.00000000E+00  0.00000000E+00
  0.00000000E+00  0.00000000E+00  0.00000000E+00
  0.00000000E+00  0.00000000E+00  0.00000000E+00
  0.00000000E+00  0.00000000E+00  0.00000000E+00
  0.00000000E+00  0.00000000E+00  0.00000000E+00
  0.00000000E+00  0.00000000E+00  0.00000000E+00
  0.00000000E+00  0.00000000E+00  0.00000000E+00
  0.00000000E+00  0.00000000E+00  0.00000000E+00
  0.00000000E+00  0.00000000E+00  0.00000000E+00
  0.00000000E+00  0.00000000E+00  0.00000000E+00
  0.00000000E+00  0.00000000E+00  0.00000000E+00
  0.00000000E+00  0.00000000E+00  0.00000000E+00
  0.00000000E+00  0.00000000E+00  0.00000000E+00
  0.00000000E+00  0.00000000E+00  0.00000000E+00
  0.00000000E+00  0.00000000E+00  0.00000000E+00
  0.00000000E+00  0.00000000E+00  0.00000000E+00
  0.00000000E+00  0.00000000E+00  0.00000000E+00
  0.00000000E+00  0.00000000E+00  0.00000000E+00
  0.00000000E+00  0.00000000E+00  0.00000000E+00
  0.00000000E+00  0.00000000E+00  0.00000000E+00
  0.00000000E+00  0.00000000E+00  0.00000000E+00
  0.00000000E+00  0.00000000E+00  0.00000000E+00
  0.00000000E+00  0.00000000E+00  0.00000000E+00
  0.00000000E+00  0.00000000E+00  0.00000000E+00
  0.00000000E+00  0.00000000E+00  0.00000000E+00
  0.00000000E+00  0.00000000E+00  0.00000000E+00
  0.00000000E+00  0.00000000E+00  0.00000000E+00
  0.00000000E+00  0.00000000E+00  0.00000000E+00
  0.00000000E+00  0.00000000E+00  0.00000000E+00
  0.00000000E+00  0.00000000E+00  0.00000000E+00
  0.00000000E+00  0.00000000E+00  0.00000000E+00
  0.00000000E+00  0.00000000E+00  0.00000000E+00
  0.00000000E+00  0.00000000E+00  0.00000000E+00
  0.00000000E+00  0.00000000E+00  0.00000000E+00
  0.00000000E+00  0.00000000E+00  0.00000000E+00
  0.00000000E+00  0.00000000E+00  0.00000000E+00
  0.00000000E+00  0.00000000E+00  0.00000000E+00
  0.00000000E+00  0.00000000E+00  0.00000000E+00
  0.00000000E+00  0.00000000E+00  0.00000000E+00
  0.00000000E+00  0.00000000E+00  0.00000000E+00
  0.00000000E+00  0.00000000E+00  0.00000000E+00
  0.00000000E+00  0.00000000E+00  0.00000000E+00
  0.00000000E+00  0.00000000E+00  0.00000000E+00
  0.00000000E+00  0.00000000E+00  0.00000000E+00
  0.00000000E+00  0.00000000E+00  0.00000000E+00
  0.00000000E+00  0.00000000E+00  0.00000000E+00
  0.00000000E+00  0.00000000E+00  0.00000000E+00
  0.00000000E+00  0.00000000E+00  0.00000000E+00
  0.00000000E+00  0.00000000E+00  0.00000000E+00
  0.00000000E+00  0.00000000E+00  0.00000000E+00
  0.00000000E+00  0.00000000E+00  0.00000000E+00
  0.00000000E+00  0.00000000E+00  0.00000000E+00
  0.00000000E+00  0.00000000E+00  0.00000000E+00
  0.00000000E+00  0.00000000E+00  0.00000000E+00
  0.00000000E+00  0.00000000E+00  0.00000000E+00
  0.00000000E+00  0.00000000E+00  0.00000000E+00
  0.00000000E+00  0.00000000E+00  0.00000000E+00
  0.00000000E+00  0.00000000E+00  0.00000000E+00
  0.00000000E+00  0.00000000E+00  0.00000000E+00
  0.00000000E+00  0.00000000E+00  0.00000000E+00
  0.00000000E+00  0.00000000E+00  0.00000000E+00
  0.00000000E+00  0.00000000E+00  0.00000000E+00
  0.00000000E+00  0.00000000E+00  0.00000000E+00
  0.00000000E+00  0.00000000E+00  0.00000000E+00
  0.00000000E+00  0.00000000E+00  0.00000000E+00
  0.00000000E+00  0.00000000E+00  0.00000000E+00
  0.00000000E+00  0.00000000E+00  0.00000000E+00
  0.00000000E+00  0.00000000E+00  0.00000000E+00
  0.00000000E+00  0.00000000E+00  0.00000000E+00
  0.00000000E+00  0.00000000E+00  0.00000000E+00
  0.00000000E+00  0.00000000E+00  0.00000000E+00
  0.00000000E+00  0.00000000E+00  0.00000000E+00
  0.00000000E+00  0.00000000E+00  0.00000000E+00
  0.00000000E+00  0.00000000E+00  0.00000000E+00
  0.00000000E+00  0.00000000E+00  0.00000000E+00
  0.00000000E+00  0.00000000E+00  0.00000000E+00
  0.00000000E+00  0.00000000E+00  0.00000000E+00
  0.00000000E+00  0.00000000E+00  0.00000000E+00
  0.00000000E+00  0.00000000E+00  0.00000000E+00
  0.00000000E+00  0.00000000E+00  0.00000000E+00
  0.00000000E+00  0.00000000E+00  0.00000000E+00
  0.00000000E+00  0.00000000E+00  0.00000000E+00
  0.00000000E+00  0.00000000E+00  0.00000000E+00
  0.00000000E+00  0.00000000E+00  0.00000000E+00
  0.00000000E+00  0.00000000E+00  0.00000000E+00
  0.00000000E+00  0.00000000E+00  0.00000000E+00
  0.00000000E+00  0.00000000E+00  0.00000000E+00
  0.00000000E+00  0.00000000E+00  0.00000000E+00
  0.00000000E+00  0.00000000E+00  0.00000000E+00
  0.00000000E+00  0.00000000E+00  0.00000000E+00
  0.00000000E+00  0.00000000E+00  0.00000000E+00
  0.00000000E+00  0.00000000E+00  0.00000000E+00
  0.00000000E+00  0.00000000E+00  0.00000000E+00
  0.00000000E+00  0.00000000E+00  0.00000000E+00
  0.00000000E+00  0.00000000E+00  0.00000000E+00
  0.00000000E+00  0.00000000E+00  0.00000000E+00
  0.00000000E+00  0.00000000E+00  0.00000000E+00
  0.00000000E+00  0.00000000E+00  0.00000000E+00
  0.00000000E+00  0.00000000E+00  0.00000000E+00
  0.00000000E+00  0.00000000E+00  0.00000000E+00
  0.00000000E+00  0.00000000E+00  0.00000000E+00
  0.00000000E+00  0.00000000E+00  0.00000000E+00
  0.00000000E+00  0.00000000E+00  0.00000000E+00
  0.00000000E+00  0.00000000E+00  0.00000000E+00
  0.00000000E+00  0.00000000E+00  0.00000000E+00
  0.00000000E+00  0.00000000E+00  0.00000000E+00
  0.00000000E+00  0.00000000E+00  0.00000000E+00
  0.00000000E+00  0.00000000E+00  0.00000000E+00
  0.00000000E+00  0.00000000E+00  0.00000000E+00
  0.00000000E+00  0.00000000E+00  0.00000000E+00
  0.00000000E+00  0.00000000E+00  0.00000000E+00
  0.00000000E+00  0.00000000E+00  0.00000000E+00
  0.00000000E+00  0.00000000E+00  0.00000000E+00
  0.00000000E+00  0.00000000E+00  0.00000000E+00
  0.00000000E+00  0.00000000E+00  0.00000000E+00
  0.00000000E+00  0.00000000E+00  0.00000000E+00
  0.00000000E+00  0.00000000E+00  0.00000000E+00
  0.00000000E+00  0.00000000E+00  0.00000000E+00
  0.00000000E+00  0.00000000E+00  0.00000000E+00
  0.00000000E+00  0.00000000E+00  0.00000000E+00
  0.00000000E+00  0.00000000E+00  0.00000000E+00
  0.00000000E+00  0.00000000E+00  0.00000000E+00
  0.00000000E+00  0.00000000E+00  0.00000000E+00
  0.00000000E+00  0.00000000E+00  0.00000000E+00
  0.00000000E+00  0.00000000E+00  0.00000000E+00
  0.00000000E+00  0.00000000E+00  0.00000000E+00
  0.00000000E+00  0.00000000E+00  0.00000000E+00
  0.00000000E+00  0.00000000E+00  0.00000000E+00
  0.00000000E+00  0.00000000E+00  0.00000000E+00
  0.00000000E+00  0.00000000E+00  0.00000000E+00
  0.00000000E+00  0.00000000E+00  0.00000000E+00
  0.00000000E+00  0.00000000E+00  0.00000000E+00
  0.00000000E+00  0.00000000E+00  0.00000000E+00
  0.00000000E+00  0.00000000E+00  0.00000000E+00
  0.00000000E+00  0.00000000E+00  0.00000000E+00
  0.00000000E+00  0.00000000E+00  0.00000000E+00
  0.00000000E+00  0.00000000E+00  0.00000000E+00
  0.00000000E+00  0.00000000E+00  0.00000000E+00
  0.00000000E+00  0.00000000E+00  0.00000000E+00
  0.00000000E+00  0.00000000E+00  0.00000000E+00
  0.00000000E+00  0.00000000E+00  0.00000000E+00
  0.00000000E+00  0.00000000E+00  0.00000000E+00