O  Si Ru C  H                           
   1.00000000000000     
    20.3096463179830877    0.0000000000000000    0.0000000000000000
     0.0000000000000000   19.8625212307842212    0.0000000000000000
     0.0000000000000000    0.0000000000000000   13.3711533343531652
   O    Si   Ru   C    H 
   192    96     3     2     4
Selective dynamics
Direct
  0.5029597959238714  0.0735967473626573  0.7055538775613215   F   F   F
  0.9970100505901769  0.5700957112357727  0.2102545259655884   F   F   F
  0.5030805939763638  0.4263843851508113  0.7056842352923525   F   F   F
  0.9970784258208596  0.9301285487161408  0.2105916692376937   F   F   F
  0.4979201355767913  0.9265869950826655  0.2936585446903024   F   F   F
  0.0035417241819289  0.4285475547624742  0.7895199257479035   F   F   F
  0.4974329411457106  0.5746887208375639  0.2926389289900015   F   F   F
  0.0034298387706855  0.0713526951231600  0.7894255810968716   F   F   F
  0.3889565772761969  0.0655390665693716  0.7981534816239062   F   F   F
  0.1125136341754853  0.5675237053765017  0.2979406170129906   F   F   F
  0.3889099898665478  0.4343607539642704  0.7986481675893984   F   F   F
  0.1128856785977845  0.9325349930911671  0.2979872190471653   F   F   F
  0.6109108741647589  0.9353828702844424  0.1989330149937842   F   F   F
  0.8875837824703012  0.4317960473797626  0.7019827822703490   F   F   F
  0.6109409863653639  0.5647656596749471  0.1987966312221232   F   F   F
  0.8875606296477017  0.0681484212248478  0.7019974724727334   F   F   F
  0.4000704309763066  0.1396211172764694  0.6348051473630747   F   F   F
  0.0964874040714108  0.6390203654614481  0.1332607229381466   F   F   F
  0.3999016787366969  0.3604760605119282  0.6347195490834565   F   F   F
  0.0958365398259815  0.8606893212351210  0.1343380973249424   F   F   F
  0.6053230221490793  0.8653637932930067  0.3656141191822257   F   F   F
  0.9036714502147021  0.3611150099541760  0.8671959494464687   F   F   F
  0.6048425383770351  0.6359340725055347  0.3641415985148342   F   F   F
  0.9037106711633953  0.1388645779857285  0.8672600340940022   F   F   F
  0.4051671367916114  0.0059484045435099  0.6214195745282325   F   F   F
  0.0957546835896537  0.5044576670094330  0.1238539523404540   F   F   F
  0.4053377235530533  0.4943129102574204  0.6224761120433158   F   F   F
  0.0959348819279953  0.9952618420849362  0.1236667522696990   F   F   F
  0.5939826308727660  0.9985443600159769  0.3726925758982489   F   F   F
  0.9056223448720360  0.4954646629612824  0.8756661182951504   F   F   F
  0.5938559224837050  0.5026669282250396  0.3731622480852934   F   F   F
  0.9055851068047573  0.0045520973680269  0.8756986538142044   F   F   F
  0.3235588523142994  0.0394342738109188  0.9647590493771077   F   F   F
  0.1755354152850472  0.5374287086297329  0.4653243552141575   F   F   F
  0.3234967193367524  0.4605945105783249  0.9653982416696039   F   F   F
  0.1757018367233201  0.9624683614469518  0.4653422415945059   F   F   F
  0.6780482337960905  0.9621922833145717  0.0346242290587071   F   F   F
  0.8237910736623206  0.4616061105882565  0.5351686626132448   F   F   F
  0.6780967325883864  0.5377492047557340  0.0348069136210754   F   F   F
  0.8239445389210971  0.0384026561381390  0.5352572612417887   F   F   F
  0.3174998441335219  0.9546983400103599  0.8085990763921558   F   F   F
  0.1785426680756501  0.4539289572153606  0.3065775942771367   F   F   F
  0.3177372271871945  0.5455874342419520  0.8087857085706389   F   F   F
  0.1788054827117591  0.0462140245917979  0.3066064839851492   F   F   F
  0.6820893354608657  0.0464814320452192  0.1921355875855681   F   F   F
  0.8213764337769049  0.5455145015961236  0.6931819151305234   F   F   F
  0.6820408710522585  0.4535446806112589  0.1922379932502594   F   F   F
  0.8212904704267103  0.9545405612584617  0.6932373235910418   F   F   F
  0.2576620278658268  0.0715948916744935  0.8010309408223364   F   F   F
  0.2443835762208124  0.5682181077698303  0.3050728769692626   F   F   F
  0.2576008245803365  0.4285365088431448  0.8008985766490113   F   F   F
  0.2448629773243880  0.9318866633656029  0.3046169672855115   F   F   F
  0.7423661483231498  0.9293393186068855  0.1996634885215300   F   F   F
  0.7561630551493934  0.4302846168730809  0.6969226498124854   F   F   F
  0.7424522880014592  0.5706156248953675  0.1995853560676650   F   F   F
  0.7562095256221468  0.0698110020093452  0.6968840297179284   F   F   F
  0.2918335111161454  0.1259622136017811  0.1066756816859993   F   F   F
  0.2084638477118403  0.6245203447027592  0.6064564249036621   F   F   F
  0.2917244912285994  0.3741320106117030  0.1062637013223551   F   F   F
  0.2067559766544491  0.8754924161386484  0.6074453557669628   F   F   F
  0.7092663266802717  0.8735306336099953  0.8948609146860917   F   F   F
  0.7911718011049018  0.3756339783358911  0.3931725728507303   F   F   F
  0.7092254178728936  0.6264668945769714  0.8950836152338866   F   F   F
  0.7912639699416957  0.1244336036930065  0.3931234783803461   F   F   F
  0.1999947822062467  0.0447976928050835  0.0273171987384302   F   F   F
  0.2986532189239455  0.5416029703013550  0.5293054200246203   F   F   F
  0.2000211055134429  0.4552075213150388  0.0273210448063281   F   F   F
  0.2985244764233670  0.9577027938929987  0.5303542805896413   F   F   F
  0.8013352085706487  0.9554636739114031  0.9711825631299433   F   F   F
  0.7008440877824782  0.4593071140854903  0.4689502584286416   F   F   F
  0.8014254563089906  0.5446410520594398  0.9709307746694122   F   F   F
  0.7009221807713644  0.0408889971561806  0.4692850374680191   F   F   F
  0.2934061126475882  0.9959367618903414  0.1460347884106596   F   F   F
  0.2040244757719947  0.4948929241817908  0.6476682063165455   F   F   F
  0.2934674275390989  0.5037955480566438  0.1466393635245637   F   F   F
  0.2039152332129888  0.0052998238836537  0.6474364261768457   F   F   F
  0.7071592669720630  0.0028169920837584  0.8521585458250200   F   F   F
  0.7971718168714403  0.5057374311676952  0.3530170105016381   F   F   F
  0.7070789914273732  0.4974130010901163  0.8519743493619529   F   F   F
  0.7970826632428256  0.9943496574893302  0.3531191837985261   F   F   F
  0.1086618715775671  0.1279374247544638  0.0976825197363809   F   F   F
  0.3870009906116181  0.6262664970179088  0.6024452584542530   F   F   F
  0.1087726383055738  0.3721005244580979  0.0976335523093539   F   F   F
  0.3884153717517549  0.8743550319451074  0.6034288792177378   F   F   F
  0.8931699331878420  0.8722986713993706  0.9010958986949760   F   F   F
  0.6104557646649198  0.3721256879835195  0.4054699051887383   F   F   F
  0.8933645817631515  0.6275854188471826  0.9008768575241248   F   F   F
  0.6106212936806870  0.1283466371927702  0.4060144077472430   F   F   F
  0.0807691375447206  0.0483432363037934  0.9452378979061606   F   F   F
  0.4170628360724038  0.5500793422813430  0.4447989255011464   F   F   F
  0.0808601149233468  0.4517285353707905  0.9452736861926070   F   F   F
  0.4159131004894689  0.9492884489534887  0.4444542427946985   F   F   F
  0.9199947313002781  0.9517934290249315  0.0542304359316788   F   F   F
  0.5831455103243854  0.4549554233364077  0.5541816169659839   F   F   F
  0.9199113886371606  0.5482084934355811  0.0541205609811115   F   F   F
  0.5832011225631035  0.0450831879372089  0.5549211478095870   F   F   F
  0.1302240619076329  0.0807943541458727  0.7671458420250161   F   F   F
  0.3711232757140550  0.5784213805493366  0.2610522938506818   F   F   F
  0.1300703203080289  0.4194663562672076  0.7672470008150967   F   F   F
  0.3711961545614955  0.9214168218819552  0.2599580766514435   F   F   F
  0.8700036890940908  0.9190297177904654  0.2321233446656237   F   F   F
  0.6290905893943162  0.4250047100210921  0.7358320911452481   F   F   F
  0.8700936611354493  0.5810283709727955  0.2320640440237582   F   F   F
  0.6288944815162338  0.0749542500531604  0.7356843089801615   F   F   F
  0.0773542092826744  0.9605089675578071  0.7947593923993708   F   F   F
  0.4276349340705750  0.4615297319039300  0.2969354324650411   F   F   F
  0.0768703582442427  0.5392388233958911  0.7949029164467873   F   F   F
  0.4270243381480014  0.0388968085086461  0.2971220191900557   F   F   F
  0.9216798161516166  0.0394078892271423  0.2053590123723268   F   F   F
  0.5684698460146862  0.5420313364552385  0.7044489711963777   F   F   F
  0.9217594082340170  0.4606343199274932  0.2052960493379459   F   F   F
  0.5682803844451030  0.9580738477350366  0.7048878412583122   F   F   F
  0.2139779454847144  0.1396418050083312  0.6476737214211639   F   F   F
  0.2807154500464151  0.6374538374489305  0.1478448833616426   F   F   F
  0.2140272369540739  0.3604721720015860  0.6475547748366495   F   F   F
  0.2823403602088348  0.8618994372291340  0.1484496897063323   F   F   F
  0.7862341309906355  0.8601748464506471  0.3520381382081581   F   F   F
  0.7123740257979705  0.3628324833595116  0.8518928531125667   F   F   F
  0.7862890849398312  0.6398107498376149  0.3518314555660140   F   F   F
  0.7123291841393566  0.1373440162285675  0.8516945437573256   F   F   F
  0.4991358033440960  0.8441540103458465  0.7060914786442112   F   F   F
  0.0028013799336435  0.3558806323845687  0.2143177354159391   F   F   F
  0.4990960108579330  0.6553286901393349  0.7046938419182922   F   F   F
  0.0027851661129077  0.1441043260911030  0.2143016055090214   F   F   F
  0.5032330821678670  0.1467434740616014  0.2906996849730561   F   F   F
  0.9985406050422014  0.6463241691349992  0.7830471101068994   F   F   F
  0.5031952035762686  0.3530957399408408  0.2905732107492724   F   F   F
  0.9987529691680876  0.8540987402956191  0.7832562291668239   F   F   F
  0.3856551304629008  0.8408998385085340  0.7970607995755898   F   F   F
  0.1198514448681252  0.3348434367254143  0.2891382138253107   F   F   F
  0.3858127193373804  0.6588194188077168  0.7967389389137409   F   F   F
  0.1198823790883594  0.1650082513067446  0.2890072029308968   F   F   F
  0.6200124999881709  0.1634877130504790  0.2130251301219488   F   F   F
  0.8812913622662606  0.6641668397968061  0.7094804879409509   F   F   F
  0.6199947296949730  0.3364375431692821  0.2128926357635308   F   F   F
  0.8813079705586944  0.8360165453936261  0.7095924470005528   F   F   F
  0.4109532791289965  0.7503198035664624  0.6571063369780816   F   F   F
  0.0729569282578737  0.2500403292903997  0.1527867193815382   F   F   F
  0.5774697134573685  0.2501625490286585  0.3505884080082993   F   F   F
  0.9263945781283098  0.7500615951193552  0.8458942778776475   F   F   F
  0.3147373067200405  0.8669980149688428  0.9581408107971754   F   F   F
  0.1828258427265936  0.3674348268722696  0.4555745549349837   F   F   F
  0.3154864042257799  0.6335161983109430  0.9579511037915509   F   F   F
  0.1828579747491403  0.1327063456145297  0.4557417413274436   F   F   F
  0.6824758424029298  0.1351366420332454  0.0448154409224486   F   F   F
  0.8171640100483728  0.6316787584973085  0.5439011862633052   F   F   F
  0.6824524272413868  0.3650002753529620  0.0448809158254093   F   F   F
  0.8174597590204016  0.8682771327434793  0.5439771983907278   F   F   F
  0.2547065976225511  0.8387700267904066  0.7854521507039109   F   F   F
  0.2501380683857164  0.3425256718583611  0.2901397433533575   F   F   F
  0.2548288174009130  0.6611852098430333  0.7855669317796838   F   F   F
  0.2502392012782266  0.1574631122263028  0.2900920273764527   F   F   F
  0.7505759783298060  0.1593487956033002  0.2099151324973576   F   F   F
  0.7509157337327039  0.6569249219930526  0.7103728355931977   F   F   F
  0.7504858464078410  0.3406584369319461  0.2097699612596600   F   F   F
  0.7510005057199720  0.8430807723910902  0.7104519533063041   F   F   F
  0.2899421600346770  0.7501574432698206  0.0438394493722569   F   F   F
  0.2022119750332578  0.2499659263675227  0.5428150424120588   F   F   F
  0.7052059730108127  0.2500498730864962  0.9514203543301036   F   F   F
  0.8020446055606882  0.7501402436411837  0.4570010234300454   F   F   F
  0.1925065932651506  0.8361052001587908  0.0071369119741220   F   F   F
  0.3031527629914805  0.3323685953519799  0.5081986471500883   F   F   F
  0.1931264613525343  0.6650124404239932  0.0056109650102130   F   F   F
  0.3032078056768057  0.1677278978933501  0.5083119635245481   F   F   F
  0.8035708942599840  0.1646862009248338  0.9888253316012197   F   F   F
  0.6985356740941882  0.6723127989441124  0.4911561121839298   F   F   F
  0.8036184141262765  0.3353362265912807  0.9889517131621162   F   F   F
  0.6984407203356682  0.8278907999323550  0.4920675993915680   F   F   F
  0.0922289379791508  0.7497325243612991  0.0255754337849652   F   F   F
  0.4062499102529458  0.2500475160738276  0.5246304612868613   F   F   F
  0.9046561023328792  0.2500797298814490  0.9753027745909719   F   F   F
  0.5936907476483952  0.7500276960727348  0.4660485341741776   F   F   F
  0.0764568895224045  0.8695179032813698  0.9392432460406042   F   F   F
  0.4190593485649359  0.3700947257885829  0.4388443258575450   F   F   F
  0.0771154588389393  0.6310541281627877  0.9377852276513607   F   F   F
  0.4189673340307110  0.1301484289485018  0.4391366329443329   F   F   F
  0.9190636301233397  0.1316241205326492  0.0637836333153459   F   F   F
  0.5846615503665618  0.6312327074294615  0.5608419961802866   F   F   F
  0.9191072331039223  0.3683629641946666  0.0637615096706270   F   F   F
  0.5842171123352173  0.8685126792391600  0.5614177663998206   F   F   F
  0.1261904959523505  0.8399321011055321  0.7579908553561268   F   F   F
  0.3775490049147336  0.3423135606503180  0.2525090253703013   F   F   F
  0.1262905461373407  0.6594453130744640  0.7560550915910298   F   F   F
  0.3776706312333644  0.1578719130055504  0.2524490822482193   F   F   F
  0.8774013940572800  0.1608264058930189  0.2499844055760079   F   F   F
  0.6241588730363077  0.6589308156579676  0.7487040076195299   F   F   F
  0.8774540480790094  0.3392495136533569  0.2499527632494605   F   F   F
  0.6241221289268992  0.8412799800221507  0.7489656287401019   F   F   F
  0.1995666650581782  0.7500265052511423  0.6644442600546370   F   F   F
  0.3013504332716224  0.2500748242871751  0.1692899449939134   F   F   F
  0.7993450742545960  0.2499945485634925  0.3357916899460349   F   F   F
  0.7013263008500914  0.7500981579490187  0.8315652051691202   F   F   F
  0.4238599363220104  0.0706781512995178  0.6890404299180659   F   F   F
  0.0756535516185579  0.5696011293255054  0.1902005962770090   F   F   F
  0.4237909518839444  0.4299006375418699  0.6886921068321925   F   F   F
  0.0755085253255317  0.9305456483782066  0.1904972124299960   F   F   F
  0.5763367276348248  0.9313245004391106  0.3085726268889459   F   F   F
  0.9250962710143966  0.4294721712651253  0.8096270632990610   F   F   F
  0.5761473437304190  0.5691501819604525  0.3082082312548238   F   F   F
  0.9250831156957204  0.0704667827149237  0.8096883677757418   F   F   F
  0.3220289867832022  0.0325177298314898  0.8437464334378646   F   F   F
  0.1778127194795829  0.5317252156342676  0.3445139403402067   F   F   F
  0.3220001904673353  0.4673134546386564  0.8439186938677494   F   F   F
  0.1780205003779827  0.9683290647539380  0.3446278119942008   F   F   F
  0.6784389698623059  0.9685768650306770  0.1556110233100014   F   F   F
  0.8221553292517711  0.4672822547253119  0.6561978151871912   F   F   F
  0.6784256059238061  0.5315584670595328  0.1556896686473905   F   F   F
  0.8222126532697445  0.0327155205612968  0.6562040703221470   F   F   F
  0.2767721266199956  0.0517933898921399  0.0615138827997797   F   F   F
  0.2222657090769857  0.5499269985536870  0.5627687637590810   F   F   F
  0.2769447724411336  0.4484922680178158  0.0620125793186119   F   F   F
  0.2218284047082406  0.9499981064824468  0.5631853340353103   F   F   F
  0.7244112490468879  0.9483640746917814  0.9381789532229163   F   F   F
  0.7777468265989995  0.4502137340073560  0.4369926755693214   F   F   F
  0.7243049147684530  0.5517618622755549  0.9378385571900765   F   F   F
  0.7778451248766345  0.0497736259357069  0.4370485897499066   F   F   F
  0.1216997207247701  0.0541851023799964  0.0489344956075328   F   F   F
  0.3767776219146484  0.5529759736892572  0.5494026664661362   F   F   F
  0.1216403545596165  0.4456985762978647  0.0487319879448762   F   F   F
  0.3766543343790190  0.9463449929777710  0.5497093245743727   F   F   F
  0.8796070563219303  0.9462696677338656  0.9502493001213068   F   F   F
  0.6224200913740816  0.4469512261899098  0.4506245393626926   F   F   F
  0.8797059458621064  0.5540551340118611  0.9498378892467159   F   F   F
  0.6226228367774169  0.0534453018185417  0.4509289319402185   F   F   F
  0.0730856608455497  0.0396398599700021  0.8253286373762307   F   F   F
  0.4277299751428956  0.5415493972122079  0.3254462481059193   F   F   F
  0.0731372301475375  0.4602065245338025  0.8252489068005460   F   F   F
  0.4277882860245086  0.9593225854826812  0.3256700684576117   F   F   F
  0.9270319652410564  0.9607507880985651  0.1745038643878161   F   F   F
  0.5710257954139237  0.4627578816556834  0.6743396191033355   F   F   F
  0.9271947212248151  0.5393230501268604  0.1744018743802371   F   F   F
  0.5710783601673981  0.0373482823641282  0.6743258987747609   F   F   F
  0.2016061639439641  0.0733434256695631  0.7146921508192676   F   F   F
  0.2971774279369441  0.5716968397512261  0.2142432061128972   F   F   F
  0.2017416596913222  0.4267949577839190  0.7148731083828395   F   F   F
  0.2977192241671105  0.9285590043786485  0.2140671526094096   F   F   F
  0.7988735140218921  0.9268681793790350  0.2851225406866931   F   F   F
  0.7011743309164373  0.4295255220607288  0.7852413123384494   F   F   F
  0.7988009768598658  0.5730161050628908  0.2849743930260473   F   F   F
  0.7012995820371302  0.0706145647875118  0.7853532886614971   F   F   F
  0.4215925824193008  0.8277981311737435  0.6900575053315166   F   F   F
  0.0759162591590794  0.3282501857901394  0.1879376813049234   F   F   F
  0.4219268050776037  0.6719169886321765  0.6900950922641158   F   F   F
  0.0758703898635815  0.1716715274315987  0.1878682198049262   F   F   F
  0.5776804597853769  0.1719302830086349  0.3153536081240844   F   F   F
  0.9252425963919109  0.6718347659269526  0.8105772329472458   F   F   F
  0.5774962549336209  0.3282623244069427  0.3152858555167057   F   F   F
  0.9252396008473909  0.8282443713181422  0.8108770481733600   F   F   F
  0.3179513616767196  0.8752441352678701  0.8365937788571927   F   F   F
  0.1828565376734872  0.3744434832822492  0.3349363078398255   F   F   F
  0.3181998831981545  0.6249602134311658  0.8370435767298190   F   F   F
  0.1829406707869552  0.1255383778691126  0.3348067906030678   F   F   F
  0.6836863422542052  0.1264158752324889  0.1652911648668223   F   F   F
  0.8178450977539526  0.6247492580031206  0.6652699232387107   F   F   F
  0.6836650266219024  0.3736676451807170  0.1653870620354283   F   F   F
  0.8178756534917682  0.8753084246937348  0.6651850327798172   F   F   F
  0.2697256875022305  0.8287411716805835  0.0399511389880018   F   F   F
  0.2262396189101565  0.3275893138300390  0.5390264760368169   F   F   F
  0.2699242425304220  0.6713698374207979  0.0395921719350483   F   F   F
  0.2261619843110054  0.1726773441861766  0.5388609294723281   F   F   F
  0.7263458153348523  0.1720155200738063  0.9593097608746817   F   F   F
  0.7756999640311903  0.6732081009359518  0.4605196056777388   F   F   F
  0.7264623639655952  0.3280711858742293  0.9591179109236236   F   F   F
  0.7757159130861169  0.8268728339919988  0.4606686117264189   F   F   F
  0.1143651602580391  0.8287601147551342  0.0269784113298641   F   F   F
  0.3819333284808195  0.3279429683944812  0.5269879528326769   F   F   F
  0.1153103616661326  0.6719366690601021  0.0265747966996202   F   F   F
  0.3819417392661961  0.1723745558080125  0.5270567136485127   F   F   F
  0.8824910369555994  0.1715984377919426  0.9736148507873921   F   F   F
  0.6199962807910282  0.6714481492831297  0.4702731897050469   F   F   F
  0.8824427108703929  0.3283516989890245  0.9736496696573980   F   F   F
  0.6198515092224568  0.8289140572698557  0.4711464302361961   F   F   F
  0.0703693488252313  0.8810091851046238  0.8187325253192625   F   F   F
  0.4313835204359009  0.3819555011374192  0.3201255360033883   F   F   F
  0.0705114844081365  0.6191631523715699  0.8179416199926592   F   F   F
  0.4311862413343661  0.1182848755889907  0.3202099989390206   F   F   F
  0.9299011981862790  0.1193206797010831  0.1827920788756927   F   F   F
  0.5692617909227380  0.6217235178454033  0.6797797320569003   F   F   F
  0.9298813243862512  0.3806715574770578  0.1828469404062716   F   F   F
  0.5691843133858114  0.8780740045136213  0.6804648734153105   F   F   F
  0.1969161937372661  0.8269901337679357  0.7039410855801123   F   F   F
  0.3053160534112465  0.3279132438417918  0.2047989712475484   F   F   F
  0.1973155864357281  0.6727630319237718  0.7032963216561399   F   F   F
  0.3053526084825293  0.1722189386444839  0.2047965717392231   F   F   F
  0.8046516112456317  0.1729217930621232  0.2969794752259602   F   F   F
  0.6962017194936010  0.6722142134375133  0.7964114493204804   F   F   F
  0.8047309325071126  0.3271621869699501  0.2971446729144631   F   F   F
  0.6962899729377057  0.8278345848038668  0.7965821662648054   F   F   F
  0.4897942063301599  0.7440269629122795  0.3880141400139934   F   F   F
  0.4001602554523416  0.7772564231745349  0.2820766002902104   F   F   F
  0.3771530950744264  0.7300082173030162  0.4366943934421172   F   F   F
  0.4192314885823833  0.7329525465377742  0.1569971848601170   T   T   T
  0.5002715755567451  0.7596498384913914  0.2408342502501668   T   T   T
  0.4195613461686563  0.6778337664301191  0.1385750216460053   T   T   T
  0.4149521181606843  0.7678948433735115  0.0919750340418233   T   T   T
  0.5264090263648100  0.7152730465724275  0.2123648032806145   T   T   T
  0.5260138901171842  0.8072930745944406  0.2137421472220311   T   T   T
 
  0.00000000E+00  0.00000000E+00  0.00000000E+00
  0.00000000E+00  0.00000000E+00  0.00000000E+00
  0.00000000E+00  0.00000000E+00  0.00000000E+00
  0.00000000E+00  0.00000000E+00  0.00000000E+00
  0.00000000E+00  0.00000000E+00  0.00000000E+00
  0.00000000E+00  0.00000000E+00  0.00000000E+00
  0.00000000E+00  0.00000000E+00  0.00000000E+00
  0.00000000E+00  0.00000000E+00  0.00000000E+00
  0.00000000E+00  0.00000000E+00  0.00000000E+00
  0.00000000E+00  0.00000000E+00  0.00000000E+00
  0.00000000E+00  0.00000000E+00  0.00000000E+00
  0.00000000E+00  0.00000000E+00  0.00000000E+00
  0.00000000E+00  0.00000000E+00  0.00000000E+00
  0.00000000E+00  0.00000000E+00  0.00000000E+00
  0.00000000E+00  0.00000000E+00  0.00000000E+00
  0.00000000E+00  0.00000000E+00  0.00000000E+00
  0.00000000E+00  0.00000000E+00  0.00000000E+00
  0.00000000E+00  0.00000000E+00  0.00000000E+00
  0.00000000E+00  0.00000000E+00  0.00000000E+00
  0.00000000E+00  0.00000000E+00  0.00000000E+00
  0.00000000E+00  0.00000000E+00  0.00000000E+00
  0.00000000E+00  0.00000000E+00  0.00000000E+00
  0.00000000E+00  0.00000000E+00  0.00000000E+00
  0.00000000E+00  0.00000000E+00  0.00000000E+00
  0.00000000E+00  0.00000000E+00  0.00000000E+00
  0.00000000E+00  0.00000000E+00  0.00000000E+00
  0.00000000E+00  0.00000000E+00  0.00000000E+00
  0.00000000E+00  0.00000000E+00  0.00000000E+00
  0.00000000E+00  0.00000000E+00  0.00000000E+00
  0.00000000E+00  0.00000000E+00  0.00000000E+00
  0.00000000E+00  0.00000000E+00  0.00000000E+00
  0.00000000E+00  0.00000000E+00  0.00000000E+00
  0.00000000E+00  0.00000000E+00  0.00000000E+00
  0.00000000E+00  0.00000000E+00  0.00000000E+00
  0.00000000E+00  0.00000000E+00  0.00000000E+00
  0.00000000E+00  0.00000000E+00  0.00000000E+00
  0.00000000E+00  0.00000000E+00  0.00000000E+00
  0.00000000E+00  0.00000000E+00  0.00000000E+00
  0.00000000E+00  0.00000000E+00  0.00000000E+00
  0.00000000E+00  0.00000000E+00  0.00000000E+00
  0.00000000E+00  0.00000000E+00  0.00000000E+00
  0.00000000E+00  0.00000000E+00  0.00000000E+00
  0.00000000E+00  0.00000000E+00  0.00000000E+00
  0.00000000E+00  0.00000000E+00  0.00000000E+00
  0.00000000E+00  0.00000000E+00  0.00000000E+00
  0.00000000E+00  0.00000000E+00  0.00000000E+00
  0.00000000E+00  0.00000000E+00  0.00000000E+00
  0.00000000E+00  0.00000000E+00  0.00000000E+00
  0.00000000E+00  0.00000000E+00  0.00000000E+00
  0.00000000E+00  0.00000000E+00  0.00000000E+00
  0.00000000E+00  0.00000000E+00  0.00000000E+00
  0.00000000E+00  0.00000000E+00  0.00000000E+00
  0.00000000E+00  0.00000000E+00  0.00000000E+00
  0.00000000E+00  0.00000000E+00  0.00000000E+00
  0.00000000E+00  0.00000000E+00  0.00000000E+00
  0.00000000E+00  0.00000000E+00  0.00000000E+00
  0.00000000E+00  0.00000000E+00  0.00000000E+00
  0.00000000E+00  0.00000000E+00  0.00000000E+00
  0.00000000E+00  0.00000000E+00  0.00000000E+00
  0.00000000E+00  0.00000000E+00  0.00000000E+00
  0.00000000E+00  0.00000000E+00  0.00000000E+00
  0.00000000E+00  0.00000000E+00  0.00000000E+00
  0.00000000E+00  0.00000000E+00  0.00000000E+00
  0.00000000E+00  0.00000000E+00  0.00000000E+00
  0.00000000E+00  0.00000000E+00  0.00000000E+00
  0.00000000E+00  0.00000000E+00  0.00000000E+00
  0.00000000E+00  0.00000000E+00  0.00000000E+00
  0.00000000E+00  0.00000000E+00  0.00000000E+00
  0.00000000E+00  0.00000000E+00  0.00000000E+00
  0.00000000E+00  0.00000000E+00  0.00000000E+00
  0.00000000E+00  0.00000000E+00  0.00000000E+00
  0.00000000E+00  0.00000000E+00  0.00000000E+00
  0.00000000E+00  0.00000000E+00  0.00000000E+00
  0.00000000E+00  0.00000000E+00  0.00000000E+00
  0.00000000E+00  0.00000000E+00  0.00000000E+00
  0.00000000E+00  0.00000000E+00  0.00000000E+00
  0.00000000E+00  0.00000000E+00  0.00000000E+00
  0.00000000E+00  0.00000000E+00  0.00000000E+00
  0.00000000E+00  0.00000000E+00  0.00000000E+00
  0.00000000E+00  0.00000000E+00  0.00000000E+00
  0.00000000E+00  0.00000000E+00  0.00000000E+00
  0.00000000E+00  0.00000000E+00  0.00000000E+00
  0.00000000E+00  0.00000000E+00  0.00000000E+00
  0.00000000E+00  0.00000000E+00  0.00000000E+00
  0.00000000E+00  0.00000000E+00  0.00000000E+00
  0.00000000E+00  0.00000000E+00  0.00000000E+00
  0.00000000E+00  0.00000000E+00  0.00000000E+00
  0.00000000E+00  0.00000000E+00  0.00000000E+00
  0.00000000E+00  0.00000000E+00  0.00000000E+00
  0.00000000E+00  0.00000000E+00  0.00000000E+00
  0.00000000E+00  0.00000000E+00  0.00000000E+00
  0.00000000E+00  0.00000000E+00  0.00000000E+00
  0.00000000E+00  0.00000000E+00  0.00000000E+00
  0.00000000E+00  0.00000000E+00  0.00000000E+00
  0.00000000E+00  0.00000000E+00  0.00000000E+00
  0.00000000E+00  0.00000000E+00  0.00000000E+00
  0.00000000E+00  0.00000000E+00  0.00000000E+00
  0.00000000E+00  0.00000000E+00  0.00000000E+00
  0.00000000E+00  0.00000000E+00  0.00000000E+00
  0.00000000E+00  0.00000000E+00  0.00000000E+00
  0.00000000E+00  0.00000000E+00  0.00000000E+00
  0.00000000E+00  0.00000000E+00  0.00000000E+00
  0.00000000E+00  0.00000000E+00  0.00000000E+00
  0.00000000E+00  0.00000000E+00  0.00000000E+00
  0.00000000E+00  0.00000000E+00  0.00000000E+00
  0.00000000E+00  0.00000000E+00  0.00000000E+00
  0.00000000E+00  0.00000000E+00  0.00000000E+00
  0.00000000E+00  0.00000000E+00  0.00000000E+00
  0.00000000E+00  0.00000000E+00  0.00000000E+00
  0.00000000E+00  0.00000000E+00  0.00000000E+00
  0.00000000E+00  0.00000000E+00  0.00000000E+00
  0.00000000E+00  0.00000000E+00  0.00000000E+00
  0.00000000E+00  0.00000000E+00  0.00000000E+00
  0.00000000E+00  0.00000000E+00  0.00000000E+00
  0.00000000E+00  0.00000000E+00  0.00000000E+00
  0.00000000E+00  0.00000000E+00  0.00000000E+00
  0.00000000E+00  0.00000000E+00  0.00000000E+00
  0.00000000E+00  0.00000000E+00  0.00000000E+00
  0.00000000E+00  0.00000000E+00  0.00000000E+00
  0.00000000E+00  0.00000000E+00  0.00000000E+00
  0.00000000E+00  0.00000000E+00  0.00000000E+00
  0.00000000E+00  0.00000000E+00  0.00000000E+00
  0.00000000E+00  0.00000000E+00  0.00000000E+00
  0.00000000E+00  0.00000000E+00  0.00000000E+00
  0.00000000E+00  0.00000000E+00  0.00000000E+00
  0.00000000E+00  0.00000000E+00  0.00000000E+00
  0.00000000E+00  0.00000000E+00  0.00000000E+00
  0.00000000E+00  0.00000000E+00  0.00000000E+00
  0.00000000E+00  0.00000000E+00  0.00000000E+00
  0.00000000E+00  0.00000000E+00  0.00000000E+00
  0.00000000E+00  0.00000000E+00  0.00000000E+00
  0.00000000E+00  0.00000000E+00  0.00000000E+00
  0.00000000E+00  0.00000000E+00  0.00000000E+00
  0.00000000E+00  0.00000000E+00  0.00000000E+00
  0.00000000E+00  0.00000000E+00  0.00000000E+00
  0.00000000E+00  0.00000000E+00  0.00000000E+00
  0.00000000E+00  0.00000000E+00  0.00000000E+00
  0.00000000E+00  0.00000000E+00  0.00000000E+00
  0.00000000E+00  0.00000000E+00  0.00000000E+00
  0.00000000E+00  0.00000000E+00  0.00000000E+00
  0.00000000E+00  0.00000000E+00  0.00000000E+00
  0.00000000E+00  0.00000000E+00  0.00000000E+00
  0.00000000E+00  0.00000000E+00  0.00000000E+00
  0.00000000E+00  0.00000000E+00  0.00000000E+00
  0.00000000E+00  0.00000000E+00  0.00000000E+00
  0.00000000E+00  0.00000000E+00  0.00000000E+00
  0.00000000E+00  0.00000000E+00  0.00000000E+00
  0.00000000E+00  0.00000000E+00  0.00000000E+00
  0.00000000E+00  0.00000000E+00  0.00000000E+00
  0.00000000E+00  0.00000000E+00  0.00000000E+00
  0.00000000E+00  0.00000000E+00  0.00000000E+00
  0.00000000E+00  0.00000000E+00  0.00000000E+00
  0.00000000E+00  0.00000000E+00  0.00000000E+00
  0.00000000E+00  0.00000000E+00  0.00000000E+00
  0.00000000E+00  0.00000000E+00  0.00000000E+00
  0.00000000E+00  0.00000000E+00  0.00000000E+00
  0.00000000E+00  0.00000000E+00  0.00000000E+00
  0.00000000E+00  0.00000000E+00  0.00000000E+00
  0.00000000E+00  0.00000000E+00  0.00000000E+00
  0.00000000E+00  0.00000000E+00  0.00000000E+00
  0.00000000E+00  0.00000000E+00  0.00000000E+00
  0.00000000E+00  0.00000000E+00  0.00000000E+00