O  Si Ru C  H                           
   1.00000000000000     
    20.3096463179999986    0.0000000000000000    0.0000000000000000
     0.0000000000000000   19.8625212309999988    0.0000000000000000
     0.0000000000000000    0.0000000000000000   13.3711533340000006
   O    Si   Ru   C    H 
   192    96     3     2     3
Selective dynamics
Direct
  0.5029851158830070  0.0736484427973139  0.7056818952677304   F   F   F
  0.9972498787580832  0.5701542789379346  0.2101315863789139   F   F   F
  0.5029301250724956  0.4264640617356719  0.7056507113321118   F   F   F
  0.9972066656967868  0.9299222754396510  0.2101561312338660   F   F   F
  0.4975089213200050  0.9269474680941912  0.2926084451804059   F   F   F
  0.0036033745956132  0.4286608116660489  0.7894948353591147   F   F   F
  0.4974429616594591  0.5740586580084539  0.2929820319434668   F   F   F
  0.0036359814577835  0.0713000430705222  0.7894744031243945   F   F   F
  0.3889603651669091  0.0657720763427676  0.7985066695615046   F   F   F
  0.1125479991974814  0.5675141307671865  0.2978117328910841   F   F   F
  0.3889903771033119  0.4343688981669587  0.7984491687124802   F   F   F
  0.1124919737545369  0.9325684409766453  0.2977802124261970   F   F   F
  0.6112047686862994  0.9352802701678300  0.1985716220568321   F   F   F
  0.8875814908196276  0.4317913181547297  0.7020188231074584   F   F   F
  0.6111772724049871  0.5648564591031899  0.1989474429091160   F   F   F
  0.8876209673710704  0.0681723899354552  0.7020534521812607   F   F   F
  0.4000682448659418  0.1397822982006076  0.6347959539333274   F   F   F
  0.0966976164649154  0.6386743301252196  0.1330039954782194   F   F   F
  0.4000063740875675  0.3603020780752715  0.6348332917400299   F   F   F
  0.0965503273473587  0.8613867707699399  0.1333760378058884   F   F   F
  0.6045340185003596  0.8638647369354899  0.3637547115866724   F   F   F
  0.9036609769885260  0.3610432653055327  0.8674325480432117   F   F   F
  0.6036300373569219  0.6361921018190841  0.3645168455279233   F   F   F
  0.9037171074332946  0.1389502794550950  0.8674246752912254   F   F   F
  0.4051024419827911  0.0058551486883971  0.6219619564822381   F   F   F
  0.0957589959297707  0.5043423744425795  0.1237889526587281   F   F   F
  0.4052803325877008  0.4940300865701488  0.6220645556594064   F   F   F
  0.0958536291519607  0.9957705013168550  0.1236674954982888   F   F   F
  0.5944986363554321  0.9972990878704380  0.3735192302689612   F   F   F
  0.9056183239308524  0.4955045565451499  0.8756340668222791   F   F   F
  0.5940820212927349  0.5027418695758712  0.3733127029259578   F   F   F
  0.9055851656666789  0.0044558747057266  0.8756917837843972   F   F   F
  0.3235715934878272  0.0393413862281093  0.9645164703828470   F   F   F
  0.1756682526974345  0.5375145052077741  0.4655230198305489   F   F   F
  0.3235877973255157  0.4608316343941965  0.9647057801669376   F   F   F
  0.1756824716778311  0.9623644808105780  0.4651012514291395   F   F   F
  0.6781669479167576  0.9623985863299751  0.0344853307973381   F   F   F
  0.8237682654843255  0.4615742569016774  0.5350342500873921   F   F   F
  0.6780509802855264  0.5376909620588251  0.0349136342417324   F   F   F
  0.8238828468580905  0.0384220643541724  0.5349827270609637   F   F   F
  0.3186337982143144  0.9544677730076714  0.8085990875511513   F   F   F
  0.1786117819690745  0.4536409663300205  0.3065698608431049   F   F   F
  0.3184216229788461  0.5453693374435886  0.8086828756530764   F   F   F
  0.1787611229528991  0.0463414901386940  0.3066248313136271   F   F   F
  0.6821538367730611  0.0466341856252228  0.1921738321855599   F   F   F
  0.8213702850516711  0.5454222454311122  0.6932584752841109   F   F   F
  0.6820306937569782  0.4533942004913030  0.1921837318956250   F   F   F
  0.8212976953048283  0.9546696093811065  0.6932136774588145   F   F   F
  0.2578719652363191  0.0710364252214006  0.8009976628065658   F   F   F
  0.2446219242010272  0.5684405600898046  0.3045844568162934   F   F   F
  0.2578216751825479  0.4289127388453693  0.8010383859985737   F   F   F
  0.2443203165724555  0.9315841395817941  0.3035953219502332   F   F   F
  0.7425818486968438  0.9293817340831438  0.1993388229290005   F   F   F
  0.7560514059794841  0.4302409693743456  0.6970337860426241   F   F   F
  0.7424241138057042  0.5705549817865574  0.1993427600814854   F   F   F
  0.7560911196786222  0.0698357153627427  0.6970048145043393   F   F   F
  0.2918960043534611  0.1259646814176989  0.1071177946650010   F   F   F
  0.2087198935557240  0.6246458570085949  0.6063156160583674   F   F   F
  0.2918618196240743  0.3740468303920466  0.1070342071866079   F   F   F
  0.2086554314783271  0.8752675271943673  0.6066568688556941   F   F   F
  0.7092270080111049  0.8735670793693444  0.8949006503431676   F   F   F
  0.7911724555766000  0.3755416890002081  0.3929722795748987   F   F   F
  0.7092348177403522  0.6265385165911468  0.8950738039251931   F   F   F
  0.7912279731041281  0.1244920654277948  0.3928923803465025   F   F   F
  0.2000164561943123  0.0447816061327941  0.0275708887387438   F   F   F
  0.2987785029399035  0.5416283424751214  0.5293084640390262   F   F   F
  0.2000065869727692  0.4552739125919061  0.0274812507253017   F   F   F
  0.2987670406760472  0.9585722953687466  0.5290602346131905   F   F   F
  0.8012704863988773  0.9554825714389565  0.9711370680103002   F   F   F
  0.7005786503132541  0.4592555119009631  0.4690103954476896   F   F   F
  0.8012775124093707  0.5446019280797287  0.9709709531134507   F   F   F
  0.7008342070963280  0.0408579694457245  0.4693168370028289   F   F   F
  0.2934235053954524  0.9951463571203831  0.1456260276905539   F   F   F
  0.2040603499096036  0.4949642688476388  0.6475629857195102   F   F   F
  0.2933235254714717  0.5046089137974263  0.1465258598072126   F   F   F
  0.2039700090891401  0.0052608014495377  0.6474808646762824   F   F   F
  0.7071939903057043  0.0028058789327687  0.8519326399831186   F   F   F
  0.7971448959361780  0.5056271007643787  0.3531462638256002   F   F   F
  0.7070674863178965  0.4973507746587060  0.8519616440450761   F   F   F
  0.7970941473201592  0.9943762885718215  0.3531817765783032   F   F   F
  0.1086908984704920  0.1280662630690301  0.0975454283378028   F   F   F
  0.3879049862887598  0.6256009566458260  0.6038820312866520   F   F   F
  0.1087364648240978  0.3719946626556023  0.0976322873022113   F   F   F
  0.3876027331887713  0.8744272671740489  0.6041628688081246   F   F   F
  0.8930448640728628  0.8723843754047209  0.9012218783946011   F   F   F
  0.6103470566196307  0.3720936712861089  0.4052819628705180   F   F   F
  0.8931486340806529  0.6276321885963441  0.9010513009913339   F   F   F
  0.6104004281512161  0.1280061162939035  0.4053275981469753   F   F   F
  0.0808771418155061  0.0482943967043710  0.9453538126737584   F   F   F
  0.4171364871148810  0.5505773955194968  0.4450363018779058   F   F   F
  0.0808968464233999  0.4517012038988071  0.9454407820394408   F   F   F
  0.4171659889389758  0.9497666737152528  0.4459070795407598   F   F   F
  0.9199756906669947  0.9518425906107026  0.0541695231344832   F   F   F
  0.5830746929290882  0.4549377619764385  0.5547816284127265   F   F   F
  0.9199336646850327  0.5482509454325921  0.0542270691994631   F   F   F
  0.5830296172280782  0.0450490691602070  0.5551097517242738   F   F   F
  0.1303547671517791  0.0806781007940387  0.7670828526840268   F   F   F
  0.3708687239910731  0.5778626927109727  0.2621117121869645   F   F   F
  0.1304094498390427  0.4194611432268260  0.7670075438645014   F   F   F
  0.3703845781109862  0.9221340368408164  0.2622084088024010   F   F   F
  0.8701083466672657  0.9190171703148877  0.2320563212540137   F   F   F
  0.6287289429880829  0.4252216552433410  0.7354937797075536   F   F   F
  0.8701301457889485  0.5810066032434236  0.2321443762724087   F   F   F
  0.6286881189549973  0.0747294385204427  0.7354720499839402   F   F   F
  0.0772823064989083  0.9605177494919843  0.7944490094296128   F   F   F
  0.4274738463745038  0.4614178972531349  0.2973980395820632   F   F   F
  0.0770576545433244  0.5396320700670145  0.7945094276926739   F   F   F
  0.4271150571115854  0.0388478667173118  0.2973331428967754   F   F   F
  0.9217856776891509  0.0394348122056059  0.2053440332318743   F   F   F
  0.5683476692845133  0.5422135748693506  0.7040518279162740   F   F   F
  0.9217769703692227  0.4606084721885679  0.2052945376060720   F   F   F
  0.5681334814287595  0.9578664665659815  0.7042478956166889   F   F   F
  0.2140917566686298  0.1396007301694624  0.6475517432909186   F   F   F
  0.2817770072192971  0.6381967251606753  0.1490627397608151   F   F   F
  0.2140954351525934  0.3605417772871675  0.6475859698579569   F   F   F
  0.2841541810895407  0.8606565813743003  0.1498915479526843   F   F   F
  0.7862267006520582  0.8603109739085824  0.3519466253205863   F   F   F
  0.7123689045823269  0.3627796802674510  0.8520097687958028   F   F   F
  0.7861651271619223  0.6396233575405432  0.3518938743281197   F   F   F
  0.7123134134077063  0.1373453573143877  0.8518702600456010   F   F   F
  0.4989848324408612  0.8438567519050437  0.7061611446919969   F   F   F
  0.0029197553836298  0.3558716162579358  0.2143233551587542   F   F   F
  0.4988785417079313  0.6557696003778943  0.7070005140256370   F   F   F
  0.0029295225982580  0.1441391126481548  0.2142602480225548   F   F   F
  0.5034605953122622  0.1469825406339282  0.2906758605728186   F   F   F
  0.9990014267011844  0.6461369836520561  0.7838024348762644   F   F   F
  0.5033135317092459  0.3529909226446364  0.2906397705846473   F   F   F
  0.9989597543464583  0.8541025645633908  0.7842648523014404   F   F   F
  0.3844012958867324  0.8387973133826705  0.7961838194615609   F   F   F
  0.1199245424490485  0.3349753597865543  0.2891900457921537   F   F   F
  0.3844323601426538  0.6608991502028800  0.7966354145812460   F   F   F
  0.1199322406662660  0.1650333947459188  0.2889945591288523   F   F   F
  0.6199001024828661  0.1635666025404348  0.2130103349838350   F   F   F
  0.8814859028938713  0.6640654422635563  0.7096039823231948   F   F   F
  0.6199085510034266  0.3364155038446555  0.2130304736028137   F   F   F
  0.8815008904706545  0.8361262787749411  0.7095973956036659   F   F   F
  0.4102209934986689  0.7498014946983602  0.6529028350324424   F   F   F
  0.0729698695275829  0.2500278041468533  0.1528437333218804   F   F   F
  0.5775863522490994  0.2499937011432678  0.3506140972969689   F   F   F
  0.9262769697565503  0.7500182534449422  0.8457803731014195   F   F   F
  0.3151513496072980  0.8672667072857649  0.9579605554293877   F   F   F
  0.1828512597001648  0.3673816760575690  0.4557773651025130   F   F   F
  0.3150966775910931  0.6328749668752494  0.9580085988989282   F   F   F
  0.1829064857814089  0.1327483362164372  0.4557353505156811   F   F   F
  0.6824692032740316  0.1351386899901925  0.0447029779087273   F   F   F
  0.8168416682936268  0.6318579390309793  0.5440004737536839   F   F   F
  0.6824394287489284  0.3649738047663291  0.0449248858375100   F   F   F
  0.8168214382066381  0.8680867560238070  0.5438880815986380   F   F   F
  0.2537488860458339  0.8396650496346609  0.7870275683194450   F   F   F
  0.2503205501918160  0.3423820658198835  0.2899654025020482   F   F   F
  0.2536331514402548  0.6605284342233446  0.7866441029877365   F   F   F
  0.2504524497033742  0.1576565891839792  0.2899299061970240   F   F   F
  0.7505006906419496  0.1593663801609111  0.2097755959892638   F   F   F
  0.7508167284985774  0.6570435098483642  0.7108065579330756   F   F   F
  0.7504292226089859  0.3407186370410642  0.2097350913368956   F   F   F
  0.7508666526922312  0.8429184302548336  0.7107799299822517   F   F   F
  0.2954278569408402  0.7499520999820319  0.0467220953653111   F   F   F
  0.2022455615942391  0.2500242630036951  0.5429042456677990   F   F   F
  0.7052334378965455  0.2500348351630990  0.9513907069719068   F   F   F
  0.8017537178638392  0.7501248211529514  0.4570942023572044   F   F   F
  0.1954866112056948  0.8323865306186704  0.0104766386626522   F   F   F
  0.3034975216444380  0.3323855783308787  0.5082852135280476   F   F   F
  0.1950398961544337  0.6683555335481515  0.0087789874317465   F   F   F
  0.3034872444583243  0.1677106115763465  0.5083130627280354   F   F   F
  0.8034982869599361  0.1646423203078484  0.9888147928720699   F   F   F
  0.6976661555354582  0.6722682551820753  0.4908935541348569   F   F   F
  0.8034646713667257  0.3353788445550663  0.9889006331752057   F   F   F
  0.6977198535821145  0.8276932758342639  0.4907257279991697   F   F   F
  0.0916719709049687  0.7500941774910501  0.0255576060366209   F   F   F
  0.4063022797567371  0.2500230484181429  0.5244881834310249   F   F   F
  0.9046338084606447  0.2499866580943078  0.9752879620892401   F   F   F
  0.5917307203243283  0.7500869701456025  0.4636691431340907   F   F   F
  0.0800634496441930  0.8692224661951329  0.9375178143436358   F   F   F
  0.4189538438790876  0.3699504405715501  0.4393474516494820   F   F   F
  0.0796839064115247  0.6310366088623738  0.9374528602789383   F   F   F
  0.4188688619890399  0.1301962183364438  0.4393840977780812   F   F   F
  0.9190739438089182  0.1316123798486899  0.0637602741831742   F   F   F
  0.5833357720514059  0.6325704028224877  0.5614020906353119   F   F   F
  0.9190941126849097  0.3683632528473595  0.0637666607059941   F   F   F
  0.5837675921413137  0.8680873244930751  0.5610185171882804   F   F   F
  0.1254365943758486  0.8401549853247161  0.7539937697483197   F   F   F
  0.3773539132236792  0.3422395847518089  0.2524693077949323   F   F   F
  0.1255774422887370  0.6598357506454064  0.7538375227943774   F   F   F
  0.3773840505893276  0.1579385047087740  0.2522834268273755   F   F   F
  0.8774072215057913  0.1607700492503383  0.2499584753312263   F   F   F
  0.6239359200192851  0.6588236658604814  0.7486703827945718   F   F   F
  0.8774033790174585  0.3392608238295054  0.2499626455866988   F   F   F
  0.6239996878042504  0.8412774703480892  0.7485170555544656   F   F   F
  0.2009774706899137  0.7500437332490222  0.6641539034734478   F   F   F
  0.3013646686639007  0.2499907251646789  0.1692110135429914   F   F   F
  0.7993370181552848  0.2499882626622494  0.3357532961512035   F   F   F
  0.7013315906191622  0.7500600547274487  0.8317448656657831   F   F   F
  0.4240712964545850  0.0707294642010154  0.6892561470040519   F   F   F
  0.0756272683938946  0.5696954817670488  0.1902122070217942   F   F   F
  0.4240910773255351  0.4293973155289876  0.6892357178470263   F   F   F
  0.0754790738469495  0.9304031208313432  0.1904023712596512   F   F   F
  0.5765132646035198  0.9309560349296362  0.3073938298205832   F   F   F
  0.9250026772667965  0.4295864643513383  0.8095591144519574   F   F   F
  0.5759488130658994  0.5694455102263802  0.3080171950251724   F   F   F
  0.9249518801695586  0.0704567529084343  0.8095225563012960   F   F   F
  0.3221394159881186  0.0326310824816503  0.8440785857256969   F   F   F
  0.1777299361485802  0.5316867513108079  0.3444855015879682   F   F   F
  0.3220555273201811  0.4675657968187608  0.8444581249577325   F   F   F
  0.1776974190956366  0.9684159080878132  0.3443768526103881   F   F   F
  0.6784124638335527  0.9685514468564804  0.1555017667984231   F   F   F
  0.8221741689807942  0.4673521782562489  0.6559997800414692   F   F   F
  0.6784131183749480  0.5317386537235151  0.1557526846649893   F   F   F
  0.8221872980642217  0.0326701195000183  0.6560751141730989   F   F   F
  0.2765776960784692  0.0517464630436919  0.0610161843625008   F   F   F
  0.2221287388861555  0.5498068188701382  0.5621596298108784   F   F   F
  0.2766271948810726  0.4486147991629323  0.0616987418869357   F   F   F
  0.2222895142198240  0.9501788918011513  0.5623118966174943   F   F   F
  0.7243449687482979  0.9483873876058695  0.9381087475328656   F   F   F
  0.7779200889743407  0.4502724571223169  0.4371414860541520   F   F   F
  0.7244368067124540  0.5517258434010373  0.9380577169684798   F   F   F
  0.7779539447302142  0.0496858680488899  0.4371780258362676   F   F   F
  0.1217626712447242  0.0542209044758835  0.0487635359223901   F   F   F
  0.3768979428599835  0.5529170742054248  0.5492053951538125   F   F   F
  0.1218370415453407  0.4457990813749149  0.0486446421850886   F   F   F
  0.3769640508214849  0.9469852515419248  0.5491273294324799   F   F   F
  0.8797316315679211  0.9460877920424835  0.9500413451428358   F   F   F
  0.6226522897033391  0.4472035345115799  0.4505361727128729   F   F   F
  0.8797492679581396  0.5539856541355590  0.9499849707912205   F   F   F
  0.6228315065724601  0.0527890599087684  0.4506002777958003   F   F   F
  0.0730393400559564  0.0398748229369730  0.8249933688923861   F   F   F
  0.4278641530011527  0.5416357031915666  0.3257710086434926   F   F   F
  0.0729739901436730  0.4601151649626729  0.8251660892026109   F   F   F
  0.4284977762740212  0.9588047581261350  0.3260157289626733   F   F   F
  0.9270058340440244  0.9605999797099827  0.1744177532995224   F   F   F
  0.5712608091014957  0.4627743487100560  0.6741370513521332   F   F   F
  0.9270573211700750  0.5394081078634230  0.1743393572147625   F   F   F
  0.5713144164371826  0.0372003514393811  0.6741444673445258   F   F   F
  0.2014550183638661  0.0732226985632849  0.7146311108319381   F   F   F
  0.2978069517939943  0.5718165499599124  0.2150925425566328   F   F   F
  0.2014404857559313  0.4267696980973597  0.7148509627056185   F   F   F
  0.2984396543596759  0.9288610378288524  0.2154033353288440   F   F   F
  0.7989321551816033  0.9266681812912125  0.2853551564616836   F   F   F
  0.7013844539544323  0.4295053143884502  0.7851348265995455   F   F   F
  0.7988722623393230  0.5733355687351391  0.2853608722079812   F   F   F
  0.7014889448993102  0.0706711239630167  0.7850441160196908   F   F   F
  0.4212106899293317  0.8277816756628127  0.6898231120891367   F   F   F
  0.0757872581925128  0.3283136892469471  0.1879142101878841   F   F   F
  0.4214742909089537  0.6715342048899160  0.6906921440642790   F   F   F
  0.0758026683504482  0.1718242669982573  0.1878680104302148   F   F   F
  0.5774483470008676  0.1718172088770515  0.3152710359692605   F   F   F
  0.9250948324743007  0.6718352878221765  0.8106573138605668   F   F   F
  0.5775356050122511  0.3281860552117664  0.3152771848302365   F   F   F
  0.9251151545333158  0.8283201373661910  0.8108513149948990   F   F   F
  0.3178207428157975  0.8744698128822392  0.8372235970532103   F   F   F
  0.1827005545810749  0.3746643592102643  0.3348257749527193   F   F   F
  0.3176938477701441  0.6253288569675348  0.8373944166861520   F   F   F
  0.1826640454238486  0.1253655331593819  0.3349140416090179   F   F   F
  0.6838068091814478  0.1262487094322182  0.1652767492694380   F   F   F
  0.8178349470947950  0.6246615535302382  0.6646982523149987   F   F   F
  0.6837339112074545  0.3737536136105390  0.1653102624349856   F   F   F
  0.8178914803146000  0.8752835418305267  0.6647220354711294   F   F   F
  0.2720023692583524  0.8276198112767759  0.0415679837916656   F   F   F
  0.2260039019516995  0.3276038834793411  0.5391331037309328   F   F   F
  0.2717090794259747  0.6722561410150476  0.0419536756211158   F   F   F
  0.2259538150165241  0.1725944973959059  0.5391380686800318   F   F   F
  0.7264354023322355  0.1718687317653789  0.9590488689272902   F   F   F
  0.7750479026116253  0.6730109888938003  0.4606096087247877   F   F   F
  0.7265149838413265  0.3282129557903062  0.9590250720989104   F   F   F
  0.7751733245269250  0.8268445587967506  0.4604522988253095   F   F   F
  0.1154788001374456  0.8278146759075824  0.0271104046815083   F   F   F
  0.3818973653979327  0.3280393335597864  0.5267864137099423   F   F   F
  0.1153483424470139  0.6722256338420749  0.0268862802091974   F   F   F
  0.3819251257195262  0.1721264793734179  0.5268495222643921   F   F   F
  0.8825321089365161  0.1716172432358931  0.9734943186052618   F   F   F
  0.6194534794663795  0.6719450820489854  0.4703948853366455   F   F   F
  0.8825545543922857  0.3284533693350227  0.9735530357878304   F   F   F
  0.6195641675149304  0.8285770656479130  0.4702042583011377   F   F   F
  0.0709410887389055  0.8808842557623251  0.8176888513951113   F   F   F
  0.4313406377085371  0.3816557326156911  0.3203020431523242   F   F   F
  0.0707469752116552  0.6191042057779583  0.8176841493940188   F   F   F
  0.4313914845013898  0.1186505381144372  0.3204462624893054   F   F   F
  0.9298264147642428  0.1192503394940019  0.1828206053760084   F   F   F
  0.5690204068229434  0.6221479096757818  0.6804058094908569   F   F   F
  0.9298293186150843  0.3807653063083123  0.1828419713769591   F   F   F
  0.5689693498186372  0.8778132184348451  0.6800876382988790   F   F   F
  0.1971294594996706  0.8272871158944355  0.7028706636941848   F   F   F
  0.3054123932331407  0.3282726812577721  0.2048796436272511   F   F   F
  0.1971001436840538  0.6728105892122329  0.7031387048319004   F   F   F
  0.3053806101097010  0.1721388823449601  0.2048781767126613   F   F   F
  0.8047137709671262  0.1728050779782038  0.2971933290664666   F   F   F
  0.6964728998879153  0.6721901888168844  0.7965221927684993   F   F   F
  0.8047499705667391  0.3272274766628627  0.2972325130779936   F   F   F
  0.6963191595177989  0.8278509277435688  0.7964438519337449   F   F   F
  0.4862535351602233  0.7583173563346222  0.3660792087606524   F   F   F
  0.3780230305398007  0.7692162227514174  0.2889558412034106   F   F   F
  0.3925308120146056  0.7433633737103520  0.4634928961016911   F   F   F
  0.4672196428321698  0.7576516443032162  0.2218018862200353   T   T   T
  0.5097660272315210  0.7531453942803950  0.1452904884904100   T   T   T
  0.4963844081946931  0.7489230365124513  0.0653701366192863   T   T   T
  0.4009852825583593  0.7209318486671563  0.1933610253693345   T   T   T
  0.5631118061614870  0.7534165640518042  0.1561045256486727   T   T   T
 
  0.00000000E+00  0.00000000E+00  0.00000000E+00
  0.00000000E+00  0.00000000E+00  0.00000000E+00
  0.00000000E+00  0.00000000E+00  0.00000000E+00
  0.00000000E+00  0.00000000E+00  0.00000000E+00
  0.00000000E+00  0.00000000E+00  0.00000000E+00
  0.00000000E+00  0.00000000E+00  0.00000000E+00
  0.00000000E+00  0.00000000E+00  0.00000000E+00
  0.00000000E+00  0.00000000E+00  0.00000000E+00
  0.00000000E+00  0.00000000E+00  0.00000000E+00
  0.00000000E+00  0.00000000E+00  0.00000000E+00
  0.00000000E+00  0.00000000E+00  0.00000000E+00
  0.00000000E+00  0.00000000E+00  0.00000000E+00
  0.00000000E+00  0.00000000E+00  0.00000000E+00
  0.00000000E+00  0.00000000E+00  0.00000000E+00
  0.00000000E+00  0.00000000E+00  0.00000000E+00
  0.00000000E+00  0.00000000E+00  0.00000000E+00
  0.00000000E+00  0.00000000E+00  0.00000000E+00
  0.00000000E+00  0.00000000E+00  0.00000000E+00
  0.00000000E+00  0.00000000E+00  0.00000000E+00
  0.00000000E+00  0.00000000E+00  0.00000000E+00
  0.00000000E+00  0.00000000E+00  0.00000000E+00
  0.00000000E+00  0.00000000E+00  0.00000000E+00
  0.00000000E+00  0.00000000E+00  0.00000000E+00
  0.00000000E+00  0.00000000E+00  0.00000000E+00
  0.00000000E+00  0.00000000E+00  0.00000000E+00
  0.00000000E+00  0.00000000E+00  0.00000000E+00
  0.00000000E+00  0.00000000E+00  0.00000000E+00
  0.00000000E+00  0.00000000E+00  0.00000000E+00
  0.00000000E+00  0.00000000E+00  0.00000000E+00
  0.00000000E+00  0.00000000E+00  0.00000000E+00
  0.00000000E+00  0.00000000E+00  0.00000000E+00
  0.00000000E+00  0.00000000E+00  0.00000000E+00
  0.00000000E+00  0.00000000E+00  0.00000000E+00
  0.00000000E+00  0.00000000E+00  0.00000000E+00
  0.00000000E+00  0.00000000E+00  0.00000000E+00
  0.00000000E+00  0.00000000E+00  0.00000000E+00
  0.00000000E+00  0.00000000E+00  0.00000000E+00
  0.00000000E+00  0.00000000E+00  0.00000000E+00
  0.00000000E+00  0.00000000E+00  0.00000000E+00
  0.00000000E+00  0.00000000E+00  0.00000000E+00
  0.00000000E+00  0.00000000E+00  0.00000000E+00
  0.00000000E+00  0.00000000E+00  0.00000000E+00
  0.00000000E+00  0.00000000E+00  0.00000000E+00
  0.00000000E+00  0.00000000E+00  0.00000000E+00
  0.00000000E+00  0.00000000E+00  0.00000000E+00
  0.00000000E+00  0.00000000E+00  0.00000000E+00
  0.00000000E+00  0.00000000E+00  0.00000000E+00
  0.00000000E+00  0.00000000E+00  0.00000000E+00
  0.00000000E+00  0.00000000E+00  0.00000000E+00
  0.00000000E+00  0.00000000E+00  0.00000000E+00
  0.00000000E+00  0.00000000E+00  0.00000000E+00
  0.00000000E+00  0.00000000E+00  0.00000000E+00
  0.00000000E+00  0.00000000E+00  0.00000000E+00
  0.00000000E+00  0.00000000E+00  0.00000000E+00
  0.00000000E+00  0.00000000E+00  0.00000000E+00
  0.00000000E+00  0.00000000E+00  0.00000000E+00
  0.00000000E+00  0.00000000E+00  0.00000000E+00
  0.00000000E+00  0.00000000E+00  0.00000000E+00
  0.00000000E+00  0.00000000E+00  0.00000000E+00
  0.00000000E+00  0.00000000E+00  0.00000000E+00
  0.00000000E+00  0.00000000E+00  0.00000000E+00
  0.00000000E+00  0.00000000E+00  0.00000000E+00
  0.00000000E+00  0.00000000E+00  0.00000000E+00
  0.00000000E+00  0.00000000E+00  0.00000000E+00
  0.00000000E+00  0.00000000E+00  0.00000000E+00
  0.00000000E+00  0.00000000E+00  0.00000000E+00
  0.00000000E+00  0.00000000E+00  0.00000000E+00
  0.00000000E+00  0.00000000E+00  0.00000000E+00
  0.00000000E+00  0.00000000E+00  0.00000000E+00
  0.00000000E+00  0.00000000E+00  0.00000000E+00
  0.00000000E+00  0.00000000E+00  0.00000000E+00
  0.00000000E+00  0.00000000E+00  0.00000000E+00
  0.00000000E+00  0.00000000E+00  0.00000000E+00
  0.00000000E+00  0.00000000E+00  0.00000000E+00
  0.00000000E+00  0.00000000E+00  0.00000000E+00
  0.00000000E+00  0.00000000E+00  0.00000000E+00
  0.00000000E+00  0.00000000E+00  0.00000000E+00
  0.00000000E+00  0.00000000E+00  0.00000000E+00
  0.00000000E+00  0.00000000E+00  0.00000000E+00
  0.00000000E+00  0.00000000E+00  0.00000000E+00
  0.00000000E+00  0.00000000E+00  0.00000000E+00
  0.00000000E+00  0.00000000E+00  0.00000000E+00
  0.00000000E+00  0.00000000E+00  0.00000000E+00
  0.00000000E+00  0.00000000E+00  0.00000000E+00
  0.00000000E+00  0.00000000E+00  0.00000000E+00
  0.00000000E+00  0.00000000E+00  0.00000000E+00
  0.00000000E+00  0.00000000E+00  0.00000000E+00
  0.00000000E+00  0.00000000E+00  0.00000000E+00
  0.00000000E+00  0.00000000E+00  0.00000000E+00
  0.00000000E+00  0.00000000E+00  0.00000000E+00
  0.00000000E+00  0.00000000E+00  0.00000000E+00
  0.00000000E+00  0.00000000E+00  0.00000000E+00
  0.00000000E+00  0.00000000E+00  0.00000000E+00
  0.00000000E+00  0.00000000E+00  0.00000000E+00
  0.00000000E+00  0.00000000E+00  0.00000000E+00
  0.00000000E+00  0.00000000E+00  0.00000000E+00
  0.00000000E+00  0.00000000E+00  0.00000000E+00
  0.00000000E+00  0.00000000E+00  0.00000000E+00
  0.00000000E+00  0.00000000E+00  0.00000000E+00
  0.00000000E+00  0.00000000E+00  0.00000000E+00
  0.00000000E+00  0.00000000E+00  0.00000000E+00
  0.00000000E+00  0.00000000E+00  0.00000000E+00
  0.00000000E+00  0.00000000E+00  0.00000000E+00
  0.00000000E+00  0.00000000E+00  0.00000000E+00
  0.00000000E+00  0.00000000E+00  0.00000000E+00
  0.00000000E+00  0.00000000E+00  0.00000000E+00
  0.00000000E+00  0.00000000E+00  0.00000000E+00
  0.00000000E+00  0.00000000E+00  0.00000000E+00
  0.00000000E+00  0.00000000E+00  0.00000000E+00
  0.00000000E+00  0.00000000E+00  0.00000000E+00
  0.00000000E+00  0.00000000E+00  0.00000000E+00
  0.00000000E+00  0.00000000E+00  0.00000000E+00
  0.00000000E+00  0.00000000E+00  0.00000000E+00
  0.00000000E+00  0.00000000E+00  0.00000000E+00
  0.00000000E+00  0.00000000E+00  0.00000000E+00
  0.00000000E+00  0.00000000E+00  0.00000000E+00
  0.00000000E+00  0.00000000E+00  0.00000000E+00
  0.00000000E+00  0.00000000E+00  0.00000000E+00
  0.00000000E+00  0.00000000E+00  0.00000000E+00
  0.00000000E+00  0.00000000E+00  0.00000000E+00
  0.00000000E+00  0.00000000E+00  0.00000000E+00
  0.00000000E+00  0.00000000E+00  0.00000000E+00
  0.00000000E+00  0.00000000E+00  0.00000000E+00
  0.00000000E+00  0.00000000E+00  0.00000000E+00
  0.00000000E+00  0.00000000E+00  0.00000000E+00
  0.00000000E+00  0.00000000E+00  0.00000000E+00
  0.00000000E+00  0.00000000E+00  0.00000000E+00
  0.00000000E+00  0.00000000E+00  0.00000000E+00
  0.00000000E+00  0.00000000E+00  0.00000000E+00
  0.00000000E+00  0.00000000E+00  0.00000000E+00
  0.00000000E+00  0.00000000E+00  0.00000000E+00
  0.00000000E+00  0.00000000E+00  0.00000000E+00
  0.00000000E+00  0.00000000E+00  0.00000000E+00
  0.00000000E+00  0.00000000E+00  0.00000000E+00
  0.00000000E+00  0.00000000E+00  0.00000000E+00
  0.00000000E+00  0.00000000E+00  0.00000000E+00
  0.00000000E+00  0.00000000E+00  0.00000000E+00
  0.00000000E+00  0.00000000E+00  0.00000000E+00
  0.00000000E+00  0.00000000E+00  0.00000000E+00
  0.00000000E+00  0.00000000E+00  0.00000000E+00
  0.00000000E+00  0.00000000E+00  0.00000000E+00
  0.00000000E+00  0.00000000E+00  0.00000000E+00
  0.00000000E+00  0.00000000E+00  0.00000000E+00
  0.00000000E+00  0.00000000E+00  0.00000000E+00
  0.00000000E+00  0.00000000E+00  0.00000000E+00
  0.00000000E+00  0.00000000E+00  0.00000000E+00
  0.00000000E+00  0.00000000E+00  0.00000000E+00
  0.00000000E+00  0.00000000E+00  0.00000000E+00
  0.00000000E+00  0.00000000E+00  0.00000000E+00
  0.00000000E+00  0.00000000E+00  0.00000000E+00
  0.00000000E+00  0.00000000E+00  0.00000000E+00
  0.00000000E+00  0.00000000E+00  0.00000000E+00
  0.00000000E+00  0.00000000E+00  0.00000000E+00
  0.00000000E+00  0.00000000E+00  0.00000000E+00
  0.00000000E+00  0.00000000E+00  0.00000000E+00
  0.00000000E+00  0.00000000E+00  0.00000000E+00
  0.00000000E+00  0.00000000E+00  0.00000000E+00
  0.00000000E+00  0.00000000E+00  0.00000000E+00
  0.00000000E+00  0.00000000E+00  0.00000000E+00
  0.00000000E+00  0.00000000E+00  0.00000000E+00
  0.00000000E+00  0.00000000E+00  0.00000000E+00
  0.00000000E+00  0.00000000E+00  0.00000000E+00
  0.00000000E+00  0.00000000E+00  0.00000000E+00
  0.00000000E+00  0.00000000E+00  0.00000000E+00