O  Si Ru C  H                           
   1.00000000000000     
    20.3096463179830877    0.0000000000000000    0.0000000000000000
     0.0000000000000000   19.8625212307842212    0.0000000000000000
     0.0000000000000000    0.0000000000000000   13.3711533343531652
   O    Si   Ru   C    H 
   192    96     1     2     3
Selective dynamics
Direct
  0.5025909357277101  0.0727798873228238  0.7075249800237629   F   F   F
  0.9974090642722899  0.5727798873228238  0.2075249800237629   F   F   F
  0.5025909357277101  0.4272201126771762  0.7075249800237629   F   F   F
  0.9972332125239518  0.9271093711249492  0.2077199964080734   F   F   F
  0.4979360843660459  0.9286658324144028  0.2910916149366543   F   F   F
  0.0025909357277101  0.4272201126771762  0.7924750199762371   F   F   F
  0.4974090642722899  0.5727798873228238  0.2924750199762371   F   F   F
  0.0025909357277101  0.0727798873228238  0.7924750199762371   F   F   F
  0.3868825154844515  0.0693889629433002  0.7958398315398867   F   F   F
  0.1131174845155485  0.5693889629433002  0.2958398315398867   F   F   F
  0.3868825154844515  0.4306110370566998  0.7958398315398867   F   F   F
  0.1127104573853970  0.9308732336256682  0.2960767028600344   F   F   F
  0.6133422259871821  0.9307209665790381  0.2040906404442211   F   F   F
  0.8868825154844515  0.4306110370566998  0.7041601684601133   F   F   F
  0.6131174845155485  0.5693889629433002  0.2041601684601133   F   F   F
  0.8868825154844515  0.0693889629433002  0.7041601684601133   F   F   F
  0.4023996572529711  0.1395881488352799  0.6299567877606833   F   F   F
  0.0976361399139876  0.6395053528858341  0.1302565810527199   F   F   F
  0.4023996572529711  0.3604118511647201  0.6299567877606833   F   F   F
  0.0974479010490015  0.8606062684186853  0.1301351534913309   F   F   F
  0.5995019749729593  0.8612701117887127  0.3693925774754163   F   F   F
  0.9023996572529711  0.3604118511647201  0.8700432122393167   F   F   F
  0.5994129114781970  0.6388780104979617  0.3699218747991893   F   F   F
  0.9023996572529711  0.1395881488352799  0.8700432122393167   F   F   F
  0.4045031871746829  0.0051825304987858  0.6227513228883907   F   F   F
  0.0954968128253171  0.5051825304987858  0.1227513228883836   F   F   F
  0.4045031871746829  0.4948174695012142  0.6227513228883907   F   F   F
  0.0953457143088272  0.9950701879431207  0.1225548394886502   F   F   F
  0.5957996924629185  0.9946126907667079  0.3771227081887858   F   F   F
  0.9045031871746829  0.4948174695012142  0.8772486771116093   F   F   F
  0.5954968128253171  0.5051825304987858  0.3772486771116164   F   F   F
  0.9045031871746829  0.0051825304987858  0.8772486771116093   F   F   F
  0.3244131055804047  0.0395323330820503  0.9639933782656485   F   F   F
  0.1755868944195953  0.5395323330820503  0.4639933782656414   F   F   F
  0.3244131055804047  0.4604676669179497  0.9639933782656485   F   F   F
  0.1753114539709841  0.9605859990625092  0.4635832335916845   F   F   F
  0.6755044734989610  0.9608719506881869  0.0353616041719320   F   F   F
  0.8244131055804047  0.4604676669179497  0.5360066217343515   F   F   F
  0.6755868944195953  0.5395323330820503  0.0360066217343515   F   F   F
  0.8244131055804047  0.0395323330820503  0.5360066217343515   F   F   F
  0.3251514300313403  0.9534744090938219  0.8088491834736686   F   F   F
  0.1753558411149996  0.4538071248021893  0.3088267361878323   F   F   F
  0.3246441588850004  0.5461928751978107  0.8088267361878323   F   F   F
  0.1753558411149996  0.0461928751978107  0.3088267361878323   F   F   F
  0.6753558411149996  0.0461928751978107  0.1911732638121677   F   F   F
  0.8246441588850004  0.5461928751978107  0.6911732638121677   F   F   F
  0.6753558411149996  0.4538071248021893  0.1911732638121677   F   F   F
  0.8244875764391679  0.9539509379671429  0.6912627511207390   F   F   F
  0.2554253162963604  0.0666022326352760  0.8022081905298890   F   F   F
  0.2445746837036396  0.5666022326352760  0.3022081905298890   F   F   F
  0.2554253162963604  0.4333977673647240  0.8022081905298890   F   F   F
  0.2441698246206627  0.9331670139234021  0.3014476115171476   F   F   F
  0.7449513949246409  0.9334620959587880  0.1972571904563836   F   F   F
  0.7554253162963604  0.4333977673647240  0.6977918094701110   F   F   F
  0.7445746837036396  0.5666022326352760  0.1977918094701110   F   F   F
  0.7554253162963604  0.0666022326352760  0.6977918094701110   F   F   F
  0.2915288497951138  0.1271841775282851  0.1038202525947156   F   F   F
  0.2082083082094428  0.6271249002534489  0.6036473052281366   F   F   F
  0.2915288497951138  0.3728158224717149  0.1038202525947156   F   F   F
  0.2087803494965570  0.8729504588201848  0.6033768150110532   F   F   F
  0.7085585124313027  0.8727595893754838  0.8965408616249704   F   F   F
  0.7915288497951138  0.3728158224717149  0.3961797474052844   F   F   F
  0.7088577221635290  0.6274722811673215  0.8967660385242695   F   F   F
  0.7915288497951138  0.1271841775282851  0.3961797474052844   F   F   F
  0.2010413266345239  0.0428271635220199  0.0290771958813778   F   F   F
  0.2989586733654761  0.5428271635220199  0.5290771958813778   F   F   F
  0.2010413266345239  0.4571728364779801  0.0290771958813778   F   F   F
  0.2982803021730192  0.9577633631738180  0.5285201942026987   F   F   F
  0.7990690344556484  0.9574196520497438  0.9710063212992992   F   F   F
  0.7010413266345239  0.4571728364779801  0.4709228041186222   F   F   F
  0.7989586733654761  0.5428271635220199  0.9709228041186222   F   F   F
  0.7010413266345239  0.0428271635220199  0.4709228041186222   F   F   F
  0.2968895493308423  0.9978563749150382  0.1470275059927886   F   F   F
  0.2031104506691577  0.4978563749150382  0.6470275059927815   F   F   F
  0.2968895493308423  0.5021436250849618  0.1470275059927886   F   F   F
  0.2031104506691577  0.0021436250849618  0.6470275059927815   F   F   F
  0.7031104506691577  0.0021436250849618  0.8529724940072185   F   F   F
  0.7968895493308423  0.5021436250849618  0.3529724940072114   F   F   F
  0.7031104506691577  0.4978563749150382  0.8529724940072185   F   F   F
  0.7968895493308423  0.9978563749150382  0.3529724940072114   F   F   F
  0.1089942560051327  0.1267462740242564  0.0958674480733634   F   F   F
  0.3908273763284313  0.6260233597662292  0.5982019682725195   F   F   F
  0.1089942560051327  0.3732537259757436  0.0958674480733634   F   F   F
  0.3903852295917432  0.8729607659419827  0.5966515718782759   F   F   F
  0.8908821629252515  0.8733875613792321  0.9040098407710033   F   F   F
  0.6089942560051327  0.3732537259757436  0.4041325519266366   F   F   F
  0.8909170153767292  0.6266088653297999  0.9038888968953245   F   F   F
  0.6089942560051327  0.1267462740242564  0.4041325519266366   F   F   F
  0.0831228757301545  0.0463555586530404  0.9432954022258713   F   F   F
  0.4168771242698455  0.5463555586530404  0.4432954022258713   F   F   F
  0.0831228757301545  0.4536444413469596  0.9432954022258713   F   F   F
  0.4172588021920163  0.9545616907624819  0.4432009478767753   F   F   F
  0.9166945261191870  0.9533881928980392  0.0570232689864056   F   F   F
  0.5831228757301545  0.4536444413469596  0.5567045977741287   F   F   F
  0.9168771242698455  0.5463555586530404  0.0567045977741287   F   F   F
  0.5831228757301545  0.0463555586530404  0.5567045977741287   F   F   F
  0.1289595153762306  0.0794086100630622  0.7630589808606629   F   F   F
  0.3710404846237694  0.5794086100630622  0.2630589808606629   F   F   F
  0.1289595153762306  0.4205913899369378  0.7630589808606629   F   F   F
  0.3706529406323611  0.9213647207527487  0.2628838171956573   F   F   F
  0.8710332304987389  0.9204222662703998  0.2376340629741520   F   F   F
  0.6289595153762306  0.4205913899369378  0.7369410191393371   F   F   F
  0.8710404846237694  0.5794086100630622  0.2369410191393371   F   F   F
  0.6289595153762306  0.0794086100630622  0.7369410191393371   F   F   F
  0.0734472257552525  0.9605318398209377  0.7911277592913279   F   F   F
  0.4264236799621770  0.4603034831418356  0.2908788493740602   F   F   F
  0.0735763200378230  0.5396965168581644  0.7908788493740531   F   F   F
  0.4264236799621770  0.0396965168581644  0.2908788493740602   F   F   F
  0.9264236799621770  0.0396965168581644  0.2091211506259398   F   F   F
  0.5735763200378230  0.5396965168581644  0.7091211506259469   F   F   F
  0.9264236799621770  0.4603034831418356  0.2091211506259398   F   F   F
  0.5734928786461211  0.9605884222386436  0.7089236532212553   F   F   F
  0.2164898181671191  0.1361625178643777  0.6465161981987251   F   F   F
  0.2831005885172218  0.6355109351850956  0.1460624641833803   F   F   F
  0.2164898181671191  0.3638374821356223  0.6465161981987251   F   F   F
  0.2840440270223041  0.8642497627788970  0.1456528609951633   F   F   F
  0.7818995958485147  0.8640887624643341  0.3539371462649683   F   F   F
  0.7164898181671191  0.3638374821356223  0.8534838018012749   F   F   F
  0.7829743043264017  0.6363460365811804  0.3537987698794325   F   F   F
  0.7164898181671191  0.1361625178643777  0.8534838018012749   F   F   F
  0.4958367088370750  0.8529589879365034  0.7121634931487151   F   F   F
  0.0041870730047435  0.3531357233755159  0.2140092002379745   F   F   F
  0.4963072814179341  0.6473199904925906  0.7138233887396410   F   F   F
  0.0041870730047435  0.1468642766244841  0.2140092002379745   F   F   F
  0.5041870730047435  0.1468642766244841  0.2859907997620255   F   F   F
  0.9960523909006298  0.6469374566388666  0.7858597591281438   F   F   F
  0.5041870730047435  0.3531357233755159  0.2859907997620255   F   F   F
  0.9957757666613105  0.8531219439633588  0.7858854659684482   F   F   F
  0.3773209346117312  0.8317687108423044  0.7855209241236807   F   F   F
  0.1223394308142645  0.3330694750354013  0.2858074615356969   F   F   F
  0.3784102932384954  0.6676744858181536  0.7859052316936470   F   F   F
  0.1223394308142645  0.1669305249645987  0.2858074615356969   F   F   F
  0.6223394308142645  0.1669305249645987  0.2141925384643031   F   F   F
  0.8777459594712056  0.6666368887915652  0.7135443121523224   F   F   F
  0.6223394308142645  0.3330694750354013  0.2141925384643031   F   F   F
  0.8772232613656712  0.8333588533363354  0.7136723049473943   F   F   F
  0.4250251739928359  0.7507564569797367  0.6464376354856043   F   F   F
  0.0759212098317121  0.2500000000000000  0.1472425182485750   F   F   F
  0.5759212098317121  0.2500000000000000  0.3527574817514250   F   F   F
  0.9236940856646143  0.7498475950174495  0.8522285555846025   F   F   F
  0.3180746267658421  0.8641011760577371  0.9542893480494286   F   F   F
  0.1824716471111429  0.3646363999312143  0.4553082923555465   F   F   F
  0.3176002162072749  0.6354050167543406  0.9548995872690611   F   F   F
  0.1824716471111429  0.1353636000687857  0.4553082923555465   F   F   F
  0.6824716471111429  0.1353636000687857  0.0446917076444535   F   F   F
  0.8162624746939571  0.6351248838140933  0.5437786761276797   F   F   F
  0.6824716471111429  0.3646363999312143  0.0446917076444535   F   F   F
  0.8155365317231471  0.8652193751993735  0.5447240975051670   F   F   F
  0.2481696775856648  0.8469793204294334  0.7902071814766600   F   F   F
  0.2524421241138057  0.3470288878372898  0.2906042087582890   F   F   F
  0.2484927181736794  0.6535453362771761  0.7899514023384029   F   F   F
  0.2524421241138057  0.1529711121627102  0.2906042087582890   F   F   F
  0.7524421241138057  0.1529711121627102  0.2093957912417110   F   F   F
  0.7475455600375938  0.6533370728018042  0.7100205178991175   F   F   F
  0.7524421241138057  0.3470288878372898  0.2093957912417110   F   F   F
  0.7469708481668036  0.8472093907743741  0.7097412616491212   F   F   F
  0.2953659791588308  0.7499315527987278  0.0496702205671511   F   F   F
  0.2047512101703362  0.2500000000000000  0.5502475789369754   F   F   F
  0.7047512101703362  0.2500000000000000  0.9497524210630175   F   F   F
  0.7987636564766802  0.7495570250903896  0.4488296132463461   F   F   F
  0.1963230449672082  0.8327393463722359  0.0068767799491738   F   F   F
  0.3039666124841744  0.3327166449111161  0.5062562090960796   F   F   F
  0.1964503023098345  0.6674365552734898  0.0062513916484406   F   F   F
  0.3039666124841744  0.1672833550888839  0.5062562090960796   F   F   F
  0.8039666124841744  0.1672833550888839  0.9937437909039204   F   F   F
  0.6954252215515098  0.6733962663420883  0.4922711187493292   F   F   F
  0.8039666124841744  0.3327166449111161  0.9937437909039204   F   F   F
  0.6966215998013752  0.8265935595719114  0.4929666372594923   F   F   F
  0.0932375095535818  0.7498918158108765  0.0203805453462849   F   F   F
  0.4068435254241223  0.2500000000000000  0.5199589040338424   F   F   F
  0.9068435254241223  0.2500000000000000  0.9800410959661576   F   F   F
  0.5886138138005492  0.7516377591760701  0.4785112248050396   F   F   F
  0.0810296676729152  0.8692790504631702  0.9341660103464378   F   F   F
  0.4191681511649463  0.3696157380695979  0.4342049483443873   F   F   F
  0.0808097651043695  0.6305966595247128  0.9344295545055843   F   F   F
  0.4191681511649463  0.1303842619304021  0.4342049483443873   F   F   F
  0.9191681511649392  0.1303842619304021  0.0657950516556127   F   F   F
  0.5831736185417000  0.6299497617316732  0.5665455826547827   F   F   F
  0.9191681511649392  0.3696157380695979  0.0657950516556127   F   F   F
  0.5822614101004646  0.8696630210157252  0.5665390297803583   F   F   F
  0.1215187394142987  0.8403166071002346  0.7472213507674965   F   F   F
  0.3785939221413273  0.3399016741142518  0.2475054947775277   F   F   F
  0.1217874616259351  0.6601583511368787  0.7480516697213702   F   F   F
  0.3785939221413273  0.1600983258857482  0.2475054947775277   F   F   F
  0.8785939221413201  0.1600983258857482  0.2524945052224723   F   F   F
  0.6219525152387320  0.6602697311394010  0.7540142779953598   F   F   F
  0.8785939221413201  0.3399016741142518  0.2524945052224723   F   F   F
  0.6209780628745278  0.8400342012583408  0.7534847313828124   F   F   F
  0.2027848087647115  0.7497925650475423  0.6704949464115089   F   F   F
  0.2968133864148328  0.2500000000000000  0.1713179004415224   F   F   F
  0.7968133864148328  0.2500000000000000  0.3286820995584776   F   F   F
  0.7034201681431611  0.7500808803591497  0.8297229419739338   F   F   F
  0.4240099490616913  0.0712238689892644  0.6879805273312769   F   F   F
  0.0759900509383087  0.5712238689892644  0.1879805273312769   F   F   F
  0.4240099490616913  0.4287761310107356  0.6879805273312769   F   F   F
  0.0757758819347529  0.9287494702631065  0.1882456725968140   F   F   F
  0.5764134802023264  0.9289604860128051  0.3098203232893724   F   F   F
  0.9240099490616913  0.4287761310107356  0.8120194726687231   F   F   F
  0.5759900509383087  0.5712238689892644  0.3120194726687231   F   F   F
  0.9240099490616913  0.0712238689892644  0.8120194726687231   F   F   F
  0.3227198167376812  0.0323507114762833  0.8432574132120010   F   F   F
  0.1772801832623188  0.5323507114762833  0.3432574132120010   F   F   F
  0.3227198167376812  0.4676492885237167  0.8432574132120010   F   F   F
  0.1774701558456826  0.9675806478206894  0.3426695163521103   F   F   F
  0.6767194074922003  0.9673075478652251  0.1572970783940733   F   F   F
  0.8227198167376812  0.4676492885237167  0.6567425867879990   F   F   F
  0.6772801832623188  0.5323507114762833  0.1567425867879990   F   F   F
  0.8227198167376812  0.0323507114762833  0.6567425867879990   F   F   F
  0.2779386767015382  0.0519583657721796  0.0611307184073340   F   F   F
  0.2220613232984618  0.5519583657721796  0.5611307184073340   F   F   F
  0.2779386767015382  0.4480416342278204  0.0611307184073340   F   F   F
  0.2225149505255288  0.9484561336873156  0.5609871906781407   F   F   F
  0.7223791794593382  0.9483954179398353  0.9384534384832506   F   F   F
  0.7779386767015382  0.4480416342278204  0.4388692815926660   F   F   F
  0.7220613232984618  0.5519583657721796  0.9388692815926660   F   F   F
  0.7779386767015382  0.0519583657721796  0.4388692815926660   F   F   F
  0.1225104503909904  0.0527779080613016  0.0479940299588080   F   F   F
  0.3774895496090096  0.5527779080612945  0.5479940299588080   F   F   F
  0.1225104503909904  0.4472220919386984  0.0479940299588080   F   F   F
  0.3777737416308469  0.9479708416090844  0.5462667940499628   F   F   F
  0.8774022722839234  0.9471576869770715  0.9519523039936502   F   F   F
  0.6225104503909904  0.4472220919386984  0.4520059700411920   F   F   F
  0.8774895496090096  0.5527779080612945  0.9520059700411920   F   F   F
  0.6225104503909904  0.0527779080613016  0.4520059700411920   F   F   F
  0.0722297752641694  0.0390952680378902  0.8235403254031510   F   F   F
  0.4277702247358306  0.5390952680378902  0.3235403254031510   F   F   F
  0.0722297752641694  0.4609047319621098  0.8235403254031510   F   F   F
  0.4282187521941836  0.9603325681504913  0.3250752153657643   F   F   F
  0.9273797653841385  0.9607290435087350  0.1769343792038569   F   F   F
  0.5722297752641694  0.4609047319621098  0.6764596745968490   F   F   F
  0.9277702247358306  0.5390952680378902  0.1764596745968490   F   F   F
  0.5722297752641694  0.0390952680378902  0.6764596745968490   F   F   F
  0.2011043077742869  0.0703822647950858  0.7135284737427909   F   F   F
  0.2988956922257131  0.5703822647950858  0.2135284737427909   F   F   F
  0.2011043077742869  0.4296177352049142  0.7135284737427909   F   F   F
  0.2985942565088422  0.9299502229141510  0.2133317000269273   F   F   F
  0.7988726004527180  0.9299679739713653  0.2866978479368214   F   F   F
  0.7011043077742869  0.4296177352049142  0.7864715262572091   F   F   F
  0.7988956922257131  0.5703822647950858  0.2864715262572091   F   F   F
  0.7011043077742869  0.0703822647950858  0.7864715262572091   F   F   F
  0.4222230291639448  0.8271803539899309  0.6852613702938299   F   F   F
  0.0776147133579599  0.3277153649932174  0.1851848138450478   F   F   F
  0.4223795879618848  0.6720343408905265  0.6842649987436076   F   F   F
  0.0776147133579599  0.1722846350067826  0.1851848138450478   F   F   F
  0.5776147133579599  0.1722846350067826  0.3148151861549522   F   F   F
  0.9224345457851655  0.6722687534718119  0.8143234790816862   F   F   F
  0.5776147133579599  0.3277153649932174  0.3148151861549522   F   F   F
  0.9222156405699451  0.8278413045590014  0.8142313165376791   F   F   F
  0.3168204871955211  0.8742393582162151  0.8344703974544387   F   F   F
  0.1830680121786585  0.3744867008663704  0.3347839836351412   F   F   F
  0.3173771191270021  0.6256760694679784  0.8342834015413843   F   F   F
  0.1830680121786585  0.1255132991336296  0.3347839836351412   F   F   F
  0.6830680121786585  0.1255132991336296  0.1652160163648588   F   F   F
  0.8169680327218742  0.6253854949206925  0.6653569067377347   F   F   F
  0.6830680121786585  0.3744867008663704  0.1652160163648588   F   F   F
  0.8165256420257379  0.8744707062715236  0.6654276087511022   F   F   F
  0.2722695973182638  0.8278344565089810  0.0391776949102152   F   F   F
  0.2273307924942145  0.3277299682844301  0.5397963552221228   F   F   F
  0.2725871299168858  0.6719720989824083  0.0389769251386909   F   F   F
  0.2273307924942145  0.1722700317155699  0.5397963552221228   F   F   F
  0.7273307924942145  0.1722700317155699  0.9602036447778772   F   F   F
  0.7721517479861078  0.6732996009393730  0.4602897282215963   F   F   F
  0.7273307924942145  0.3277299682844301  0.9602036447778772   F   F   F
  0.7730533105379038  0.8268786134445918  0.4596618156398833   F   F   F
  0.1174646100742791  0.8279249664587596  0.0230918443276025   F   F   F
  0.3829046392724536  0.3279865241180246  0.5228273843902258   F   F   F
  0.1168800932454204  0.6720622641451897  0.0228899101592148   F   F   F
  0.3829046392724536  0.1720134758819754  0.5228273843902258   F   F   F
  0.8829046392724536  0.1720134758819754  0.9771726156097742   F   F   F
  0.6164735496220075  0.6717282109753100  0.4760721176189406   F   F   F
  0.8829046392724536  0.3279865241180246  0.9771726156097742   F   F   F
  0.6177332846138412  0.8283347461158428  0.4757330195148910   F   F   F
  0.0685716729718209  0.8801445408149036  0.8146309935713560   F   F   F
  0.4316422255872467  0.3805306503245163  0.3150522314059216   F   F   F
  0.0684350920263128  0.6194800304426806  0.8156589226334461   F   F   F
  0.4316422255872467  0.1194693496754837  0.3150522314059216   F   F   F
  0.9316422255872467  0.1194693496754837  0.1849477685940784   F   F   F
  0.5689942825540726  0.6190844643689104  0.6866793727413736   F   F   F
  0.9316422255872467  0.3805306503245163  0.1849477685940784   F   F   F
  0.5688486381384692  0.8805661353559984  0.6864725903850797   F   F   F
  0.1944526632858583  0.8278812770709365  0.7028248967120163   F   F   F
  0.3049811923033445  0.3281471210548332  0.2034825387585641   F   F   F
  0.1953050545575223  0.6724204529029905  0.7030968478750026   F   F   F
  0.3049811923033445  0.1718528789451668  0.2034825387585641   F   F   F
  0.8049811923033445  0.1718528789451668  0.2965174612414359   F   F   F
  0.6948165430944186  0.6718802740069592  0.7968786086080470   F   F   F
  0.8049811923033445  0.3281471210548332  0.2965174612414359   F   F   F
  0.6949130448608614  0.8285827271088309  0.7972204058845946   F   F   F
  0.4725280458283692  0.7594576020043888  0.4242125177987717   F   F   F
  0.4775251141417627  0.7496441249961237  0.2791188417447543   T   T   T
  0.3968593487104712  0.7506622186218053  0.3688862942795978   T   T   T
  0.5175478022579938  0.7191357520648580  0.2464542657803861   T   T   T
  0.4501636930876671  0.7793002506680082  0.2236036430532877   T   T   T
  0.3518077638547936  0.7480633383255793  0.3213253583242973   T   T   T
 
  0.00000000E+00  0.00000000E+00  0.00000000E+00
  0.00000000E+00  0.00000000E+00  0.00000000E+00
  0.00000000E+00  0.00000000E+00  0.00000000E+00
  0.00000000E+00  0.00000000E+00  0.00000000E+00
  0.00000000E+00  0.00000000E+00  0.00000000E+00
  0.00000000E+00  0.00000000E+00  0.00000000E+00
  0.00000000E+00  0.00000000E+00  0.00000000E+00
  0.00000000E+00  0.00000000E+00  0.00000000E+00
  0.00000000E+00  0.00000000E+00  0.00000000E+00
  0.00000000E+00  0.00000000E+00  0.00000000E+00
  0.00000000E+00  0.00000000E+00  0.00000000E+00
  0.00000000E+00  0.00000000E+00  0.00000000E+00
  0.00000000E+00  0.00000000E+00  0.00000000E+00
  0.00000000E+00  0.00000000E+00  0.00000000E+00
  0.00000000E+00  0.00000000E+00  0.00000000E+00
  0.00000000E+00  0.00000000E+00  0.00000000E+00
  0.00000000E+00  0.00000000E+00  0.00000000E+00
  0.00000000E+00  0.00000000E+00  0.00000000E+00
  0.00000000E+00  0.00000000E+00  0.00000000E+00
  0.00000000E+00  0.00000000E+00  0.00000000E+00
  0.00000000E+00  0.00000000E+00  0.00000000E+00
  0.00000000E+00  0.00000000E+00  0.00000000E+00
  0.00000000E+00  0.00000000E+00  0.00000000E+00
  0.00000000E+00  0.00000000E+00  0.00000000E+00
  0.00000000E+00  0.00000000E+00  0.00000000E+00
  0.00000000E+00  0.00000000E+00  0.00000000E+00
  0.00000000E+00  0.00000000E+00  0.00000000E+00
  0.00000000E+00  0.00000000E+00  0.00000000E+00
  0.00000000E+00  0.00000000E+00  0.00000000E+00
  0.00000000E+00  0.00000000E+00  0.00000000E+00
  0.00000000E+00  0.00000000E+00  0.00000000E+00
  0.00000000E+00  0.00000000E+00  0.00000000E+00
  0.00000000E+00  0.00000000E+00  0.00000000E+00
  0.00000000E+00  0.00000000E+00  0.00000000E+00
  0.00000000E+00  0.00000000E+00  0.00000000E+00
  0.00000000E+00  0.00000000E+00  0.00000000E+00
  0.00000000E+00  0.00000000E+00  0.00000000E+00
  0.00000000E+00  0.00000000E+00  0.00000000E+00
  0.00000000E+00  0.00000000E+00  0.00000000E+00
  0.00000000E+00  0.00000000E+00  0.00000000E+00
  0.00000000E+00  0.00000000E+00  0.00000000E+00
  0.00000000E+00  0.00000000E+00  0.00000000E+00
  0.00000000E+00  0.00000000E+00  0.00000000E+00
  0.00000000E+00  0.00000000E+00  0.00000000E+00
  0.00000000E+00  0.00000000E+00  0.00000000E+00
  0.00000000E+00  0.00000000E+00  0.00000000E+00
  0.00000000E+00  0.00000000E+00  0.00000000E+00
  0.00000000E+00  0.00000000E+00  0.00000000E+00
  0.00000000E+00  0.00000000E+00  0.00000000E+00
  0.00000000E+00  0.00000000E+00  0.00000000E+00
  0.00000000E+00  0.00000000E+00  0.00000000E+00
  0.00000000E+00  0.00000000E+00  0.00000000E+00
  0.00000000E+00  0.00000000E+00  0.00000000E+00
  0.00000000E+00  0.00000000E+00  0.00000000E+00
  0.00000000E+00  0.00000000E+00  0.00000000E+00
  0.00000000E+00  0.00000000E+00  0.00000000E+00
  0.00000000E+00  0.00000000E+00  0.00000000E+00
  0.00000000E+00  0.00000000E+00  0.00000000E+00
  0.00000000E+00  0.00000000E+00  0.00000000E+00
  0.00000000E+00  0.00000000E+00  0.00000000E+00
  0.00000000E+00  0.00000000E+00  0.00000000E+00
  0.00000000E+00  0.00000000E+00  0.00000000E+00
  0.00000000E+00  0.00000000E+00  0.00000000E+00
  0.00000000E+00  0.00000000E+00  0.00000000E+00
  0.00000000E+00  0.00000000E+00  0.00000000E+00
  0.00000000E+00  0.00000000E+00  0.00000000E+00
  0.00000000E+00  0.00000000E+00  0.00000000E+00
  0.00000000E+00  0.00000000E+00  0.00000000E+00
  0.00000000E+00  0.00000000E+00  0.00000000E+00
  0.00000000E+00  0.00000000E+00  0.00000000E+00
  0.00000000E+00  0.00000000E+00  0.00000000E+00
  0.00000000E+00  0.00000000E+00  0.00000000E+00
  0.00000000E+00  0.00000000E+00  0.00000000E+00
  0.00000000E+00  0.00000000E+00  0.00000000E+00
  0.00000000E+00  0.00000000E+00  0.00000000E+00
  0.00000000E+00  0.00000000E+00  0.00000000E+00
  0.00000000E+00  0.00000000E+00  0.00000000E+00
  0.00000000E+00  0.00000000E+00  0.00000000E+00
  0.00000000E+00  0.00000000E+00  0.00000000E+00
  0.00000000E+00  0.00000000E+00  0.00000000E+00
  0.00000000E+00  0.00000000E+00  0.00000000E+00
  0.00000000E+00  0.00000000E+00  0.00000000E+00
  0.00000000E+00  0.00000000E+00  0.00000000E+00
  0.00000000E+00  0.00000000E+00  0.00000000E+00
  0.00000000E+00  0.00000000E+00  0.00000000E+00
  0.00000000E+00  0.00000000E+00  0.00000000E+00
  0.00000000E+00  0.00000000E+00  0.00000000E+00
  0.00000000E+00  0.00000000E+00  0.00000000E+00
  0.00000000E+00  0.00000000E+00  0.00000000E+00
  0.00000000E+00  0.00000000E+00  0.00000000E+00
  0.00000000E+00  0.00000000E+00  0.00000000E+00
  0.00000000E+00  0.00000000E+00  0.00000000E+00
  0.00000000E+00  0.00000000E+00  0.00000000E+00
  0.00000000E+00  0.00000000E+00  0.00000000E+00
  0.00000000E+00  0.00000000E+00  0.00000000E+00
  0.00000000E+00  0.00000000E+00  0.00000000E+00
  0.00000000E+00  0.00000000E+00  0.00000000E+00
  0.00000000E+00  0.00000000E+00  0.00000000E+00
  0.00000000E+00  0.00000000E+00  0.00000000E+00
  0.00000000E+00  0.00000000E+00  0.00000000E+00
  0.00000000E+00  0.00000000E+00  0.00000000E+00
  0.00000000E+00  0.00000000E+00  0.00000000E+00
  0.00000000E+00  0.00000000E+00  0.00000000E+00
  0.00000000E+00  0.00000000E+00  0.00000000E+00
  0.00000000E+00  0.00000000E+00  0.00000000E+00
  0.00000000E+00  0.00000000E+00  0.00000000E+00
  0.00000000E+00  0.00000000E+00  0.00000000E+00
  0.00000000E+00  0.00000000E+00  0.00000000E+00
  0.00000000E+00  0.00000000E+00  0.00000000E+00
  0.00000000E+00  0.00000000E+00  0.00000000E+00
  0.00000000E+00  0.00000000E+00  0.00000000E+00
  0.00000000E+00  0.00000000E+00  0.00000000E+00
  0.00000000E+00  0.00000000E+00  0.00000000E+00
  0.00000000E+00  0.00000000E+00  0.00000000E+00
  0.00000000E+00  0.00000000E+00  0.00000000E+00
  0.00000000E+00  0.00000000E+00  0.00000000E+00
  0.00000000E+00  0.00000000E+00  0.00000000E+00
  0.00000000E+00  0.00000000E+00  0.00000000E+00
  0.00000000E+00  0.00000000E+00  0.00000000E+00
  0.00000000E+00  0.00000000E+00  0.00000000E+00
  0.00000000E+00  0.00000000E+00  0.00000000E+00
  0.00000000E+00  0.00000000E+00  0.00000000E+00
  0.00000000E+00  0.00000000E+00  0.00000000E+00
  0.00000000E+00  0.00000000E+00  0.00000000E+00
  0.00000000E+00  0.00000000E+00  0.00000000E+00
  0.00000000E+00  0.00000000E+00  0.00000000E+00
  0.00000000E+00  0.00000000E+00  0.00000000E+00
  0.00000000E+00  0.00000000E+00  0.00000000E+00
  0.00000000E+00  0.00000000E+00  0.00000000E+00
  0.00000000E+00  0.00000000E+00  0.00000000E+00
  0.00000000E+00  0.00000000E+00  0.00000000E+00
  0.00000000E+00  0.00000000E+00  0.00000000E+00
  0.00000000E+00  0.00000000E+00  0.00000000E+00
  0.00000000E+00  0.00000000E+00  0.00000000E+00
  0.00000000E+00  0.00000000E+00  0.00000000E+00
  0.00000000E+00  0.00000000E+00  0.00000000E+00
  0.00000000E+00  0.00000000E+00  0.00000000E+00
  0.00000000E+00  0.00000000E+00  0.00000000E+00
  0.00000000E+00  0.00000000E+00  0.00000000E+00
  0.00000000E+00  0.00000000E+00  0.00000000E+00
  0.00000000E+00  0.00000000E+00  0.00000000E+00
  0.00000000E+00  0.00000000E+00  0.00000000E+00
  0.00000000E+00  0.00000000E+00  0.00000000E+00
  0.00000000E+00  0.00000000E+00  0.00000000E+00
  0.00000000E+00  0.00000000E+00  0.00000000E+00
  0.00000000E+00  0.00000000E+00  0.00000000E+00
  0.00000000E+00  0.00000000E+00  0.00000000E+00
  0.00000000E+00  0.00000000E+00  0.00000000E+00
  0.00000000E+00  0.00000000E+00  0.00000000E+00
  0.00000000E+00  0.00000000E+00  0.00000000E+00
  0.00000000E+00  0.00000000E+00  0.00000000E+00
  0.00000000E+00  0.00000000E+00  0.00000000E+00
  0.00000000E+00  0.00000000E+00  0.00000000E+00
  0.00000000E+00  0.00000000E+00  0.00000000E+00
  0.00000000E+00  0.00000000E+00  0.00000000E+00
  0.00000000E+00  0.00000000E+00  0.00000000E+00
  0.00000000E+00  0.00000000E+00  0.00000000E+00
  0.00000000E+00  0.00000000E+00  0.00000000E+00
  0.00000000E+00  0.00000000E+00  0.00000000E+00
  0.00000000E+00  0.00000000E+00  0.00000000E+00
  0.00000000E+00  0.00000000E+00  0.00000000E+00
  0.00000000E+00  0.00000000E+00  0.00000000E+00
  0.00000000E+00  0.00000000E+00  0.00000000E+00
  0.00000000E+00  0.00000000E+00  0.00000000E+00
  0.00000000E+00  0.00000000E+00  0.00000000E+00
  0.00000000E+00  0.00000000E+00  0.00000000E+00
  0.00000000E+00  0.00000000E+00  0.00000000E+00