O  Si Ru C  H                           
   1.00000000000000     
    20.3096463179999986    0.0000000000000000    0.0000000000000000
     0.0000000000000000   19.8625212309999988    0.0000000000000000
     0.0000000000000000    0.0000000000000000   13.3711533340000006
   O    Si   Ru   C    H 
   192    96     4     2     4
Selective dynamics
Direct
  0.5034451231788495  0.0547607353249333  0.7107260309670451   F   F   F
  0.9936870750540550  0.5687822731628458  0.2135453523937869   F   F   F
  0.5058982392249547  0.4358865146497806  0.7142269617895138   F   F   F
  0.9967509584401597  0.9368932636712586  0.2108199370372645   F   F   F
  0.4963499453162399  0.9435034897345673  0.2837968512565396   F   F   F
  0.0060824535717430  0.4303822467899536  0.7908116157377094   F   F   F
  0.4963851521167726  0.5655791894436533  0.2927755492999324   F   F   F
  0.0026981920369451  0.0605252292242824  0.7849233207252198   F   F   F
  0.3862776784903659  0.0665344414976516  0.7896259890500232   F   F   F
  0.1077175384573934  0.5610819860144431  0.3067857844178263   F   F   F
  0.3919616141940523  0.4395522066046311  0.8066726210014110   F   F   F
  0.1148759375647614  0.9333605645725100  0.2921923628557579   F   F   F
  0.6124826075022156  0.9350973089822290  0.2055483184667040   F   F   F
  0.8919996907459193  0.4399130150967707  0.6987411600020295   F   F   F
  0.6079798398457825  0.5576745696936385  0.1968692483295271   F   F   F
  0.8854372785792251  0.0660618190560669  0.7050798342984734   F   F   F
  0.4152864360754407  0.1338401423275783  0.6253718903087702   F   F   F
  0.0973242421936860  0.6336142121950346  0.1416679940851537   F   F   F
  0.4044395698927161  0.3699975522245467  0.6382202681075242   F   F   F
  0.0905939921150676  0.8628272979271827  0.1303084370567049   F   F   F
  0.5883269091129222  0.8651281629323009  0.3673036792148849   F   F   F
  0.9012069342719187  0.3675905237931332  0.8636905895804716   F   F   F
  0.6045526086355579  0.6268576068330347  0.3660817690364198   F   F   F
  0.9113400164652958  0.1386866398286344  0.8655717038337229   F   F   F
  0.4004737687028523  0.0002565746099989  0.6164593956765856   F   F   F
  0.0915277055134567  0.4993441058624697  0.1306426849559230   F   F   F
  0.4065275258051173  0.5048080305634031  0.6358906748209137   F   F   F
  0.0963250258974639  0.9968369404362960  0.1173774632053721   F   F   F
  0.5956406243559016  0.9974519567588516  0.3810244280411155   F   F   F
  0.9107502919001575  0.5012805369423319  0.8740085282023458   F   F   F
  0.5924666653335606  0.4932174014550910  0.3714393520651313   F   F   F
  0.9024230367558275  0.0056746256421860  0.8812538795676801   F   F   F
  0.3237307168388384  0.0391816496626802  0.9595906993075829   F   F   F
  0.1782007969021961  0.5365738148328631  0.4693509724029568   F   F   F
  0.3223531506597510  0.4628209603963072  0.9701242084870856   F   F   F
  0.1748123000011006  0.9639434833324785  0.4607411072674026   F   F   F
  0.6754972731931161  0.9645181177311599  0.0379619020672877   F   F   F
  0.8221307820921311  0.4622906317413538  0.5347360992936743   F   F   F
  0.6787603303006264  0.5349702234768117  0.0339770786043800   F   F   F
  0.8233134924088787  0.0364711416392467  0.5366872395283977   F   F   F
  0.3186556597193260  0.9533475903405559  0.8032831713117474   F   F   F
  0.1830094655069274  0.4527548682981646  0.3109360410565074   F   F   F
  0.3148238159722681  0.5476352159821687  0.8145095750492786   F   F   F
  0.1764915458367255  0.0486282150794750  0.3035274349186352   F   F   F
  0.6818335097750605  0.0471963772919750  0.1975939715090362   F   F   F
  0.8143993569828325  0.5457191431076396  0.6930636702909609   F   F   F
  0.6858578701939209  0.4516054858076615  0.1931782080921494   F   F   F
  0.8172579062365273  0.9542391562277359  0.6965986782141158   F   F   F
  0.2543691627601774  0.0700880937878026  0.7994281285789526   F   F   F
  0.2383936259431962  0.5734699819559310  0.3029585363112730   F   F   F
  0.2611792929909740  0.4264460029896000  0.8025825056270151   F   F   F
  0.2466463739505684  0.9373736225095541  0.3025553148529738   F   F   F
  0.7441209259863371  0.9308636245193469  0.1963410794454177   F   F   F
  0.7611541324297804  0.4254168888256871  0.7005340659750345   F   F   F
  0.7390177902096582  0.5722266445392705  0.1990695236706586   F   F   F
  0.7539234548232159  0.0694224384034783  0.6960024977516213   F   F   F
  0.2937241688018872  0.1299924694218788  0.0979076052129457   F   F   F
  0.2048065955307834  0.6216390108119754  0.6153623370665358   F   F   F
  0.2932369130173385  0.3792048266791355  0.1164563883204011   F   F   F
  0.1970742243304784  0.8751368661083205  0.6027620723693730   F   F   F
  0.7030637304776945  0.8756900161146959  0.8972506910686633   F   F   F
  0.7957891239240453  0.3767008606934183  0.3881505122945157   F   F   F
  0.7055918507123522  0.6214035709523884  0.8902157435621234   F   F   F
  0.7979130278151629  0.1241180102964208  0.3937747026629168   F   F   F
  0.1995977309080033  0.0483193312851782  0.0242357272149576   F   F   F
  0.3009023110017210  0.5478836363131947  0.5354755829056046   F   F   F
  0.1990785223412033  0.4572481384099305  0.0357874134219784   F   F   F
  0.2971453846597072  0.9467341816065939  0.5280493302690417   F   F   F
  0.7983523704473683  0.9529498853670049  0.9727519726129970   F   F   F
  0.6994618610446821  0.4514664188588355  0.4688740430944662   F   F   F
  0.8010514602814069  0.5439668027025562  0.9648033259716655   F   F   F
  0.7012354202078086  0.0482484645650629  0.4698274230390567   F   F   F
  0.2939960437681535  0.0019774597621876  0.1423783866330837   F   F   F
  0.2086400061777951  0.4903137363545724  0.6486395090980608   F   F   F
  0.2937957895931120  0.5106328681279564  0.1490065298567274   F   F   F
  0.2065444508895595  0.0047600645462822  0.6418844570247515   F   F   F
  0.7059847339176102  0.0058781094821185  0.8552809675232425   F   F   F
  0.7917126470944922  0.5077085759170927  0.3560827640112976   F   F   F
  0.7060443745387417  0.4904756848044656  0.8527819898721702   F   F   F
  0.7943095684008625  0.9943089305570467  0.3559610933899222   F   F   F
  0.1092047269114431  0.1306709634713172  0.0993667012940520   F   F   F
  0.3917276456475065  0.6348746667791829  0.6027762209299539   F   F   F
  0.1098286558423354  0.3686599609569257  0.0995903042929882   F   F   F
  0.3912551992126438  0.8673689214478486  0.6006240863900345   F   F   F
  0.8884047310178218  0.8717881024073790  0.8944876792865486   F   F   F
  0.6102294813110660  0.3635022646907089  0.4019726042275238   F   F   F
  0.8907395726022855  0.6322378561401791  0.9003236424667520   F   F   F
  0.6105264023058083  0.1308847243398006  0.3953373938399665   F   F   F
  0.0812986190716387  0.0548779353723390  0.9419238607573988   F   F   F
  0.4206969437752406  0.5488235551583927  0.4528377324777466   F   F   F
  0.0818410410109323  0.4508833182230561  0.9488474284843917   F   F   F
  0.4146257012043009  0.9446289002158750  0.4401905517929947   F   F   F
  0.9173601759234629  0.9437970697415068  0.0541662046979354   F   F   F
  0.5811920438308391  0.4444741867774127  0.5526096071094031   F   F   F
  0.9169672105702489  0.5536735350724413  0.0549400639559821   F   F   F
  0.5836573652327743  0.0583608230943042  0.5544588512500823   F   F   F
  0.1281533325405277  0.0780250307398376  0.7592961846122535   F   F   F
  0.3683618025177253  0.5802516806495532  0.2754528471135700   F   F   F
  0.1333835362341773  0.4191654037947714  0.7721922323853434   F   F   F
  0.3722584041944543  0.9246430667260839  0.2509993158309456   F   F   F
  0.8711594700501166  0.9197732863968611  0.2373670352337953   F   F   F
  0.6331429325714240  0.4161057380855482  0.7311095832418175   F   F   F
  0.8669791754078702  0.5818900756248055  0.2344656727314316   F   F   F
  0.6276744171537203  0.0793194158584072  0.7401097020915799   F   F   F
  0.0846812771323826  0.9570555667859750  0.8061473981478642   F   F   F
  0.4153430660027979  0.4593334473643367  0.3056960520346976   F   F   F
  0.0818529195815216  0.5391951905436656  0.7994456595285797   F   F   F
  0.4104571198393714  0.0436697767744789  0.3095553623037617   F   F   F
  0.9154537760531980  0.0415793760539529  0.1923704340259960   F   F   F
  0.5894744070829745  0.5385464802393116  0.6950749473970177   F   F   F
  0.9157849896192829  0.4605788773275989  0.2002729775405072   F   F   F
  0.5910887267123854  0.9569234096038315  0.6858244450018489   F   F   F
  0.2138160884261850  0.1395516247475683  0.6459354235711672   F   F   F
  0.2870840107100250  0.6445478251922623  0.1531086964606629   F   F   F
  0.2136337789228335  0.3566536629289203  0.6524305035048101   F   F   F
  0.2758129222377903  0.8685969938947338  0.1431835297044586   F   F   F
  0.7832359691865989  0.8599206551174561  0.3503027679140942   F   F   F
  0.7147834537572706  0.3562705324454569  0.8516293370090651   F   F   F
  0.7825443620306913  0.6421435602722170  0.3522227098103414   F   F   F
  0.7161486099872505  0.1398910913309450  0.8514870331509172   F   F   F
  0.4959456220839726  0.8672589919293046  0.7207618075092128   F   F   F
  0.0027253175144963  0.3614345375527108  0.2154636754536412   F   F   F
  0.5002986062076147  0.6353767326134943  0.7172817734361203   F   F   F
  0.0048993398757915  0.1378335128259920  0.2196855009111545   F   F   F
  0.5052613917693094  0.1341736603852723  0.2753343945985165   F   F   F
  0.0000725850175556  0.6438118192222433  0.7880672390233343   F   F   F
  0.5028091699935331  0.3611064502127519  0.2841338349863491   F   F   F
  0.9938162007630638  0.8621275598015998  0.7745827966627346   F   F   F
  0.3790839943213200  0.8353613542539193  0.7934412550918069   F   F   F
  0.1176568039450672  0.3364617281943865  0.2924326951014606   F   F   F
  0.3861003119164650  0.6600679009256964  0.7982764712400723   F   F   F
  0.1222603963979196  0.1691769975052679  0.2892947481048580   F   F   F
  0.6206816550360799  0.1653632101952454  0.2030918885450745   F   F   F
  0.8853057673464946  0.6595246179005656  0.7046706629267803   F   F   F
  0.6178028691991670  0.3365280841819853  0.2064794939378487   F   F   F
  0.8765374030189577  0.8347016044268258  0.7029270795519054   F   F   F
  0.4387523374717617  0.7505274307398437  0.6727977823053592   F   F   F
  0.0665106060549547  0.2503635574389378  0.1589216444856518   F   F   F
  0.5646072155040400  0.2474333995602507  0.3336510749630222   F   F   F
  0.9288134961631442  0.7516249015695564  0.8358679545814240   F   F   F
  0.3101924419118731  0.8677608619967145  0.9528657922489927   F   F   F
  0.1820692663051418  0.3653460842775331  0.4598829146032912   F   F   F
  0.3169598671471832  0.6377617335136918  0.9610844266275365   F   F   F
  0.1877958187575501  0.1345568268588480  0.4522858731638593   F   F   F
  0.6906268168387086  0.1294792886909590  0.0445645029730954   F   F   F
  0.8141596453073845  0.6328577579545751  0.5441448138994502   F   F   F
  0.6845400323502346  0.3658618359072250  0.0434823169486194   F   F   F
  0.8059271993756454  0.8710094180706349  0.5443256028831343   F   F   F
  0.2487417230811673  0.8427032432304955  0.7808726831044694   F   F   F
  0.2479622727366646  0.3384558546326986  0.2943910506579215   F   F   F
  0.2561679278274696  0.6650443368679930  0.7882392621728300   F   F   F
  0.2526199312447588  0.1561154978277557  0.2843525078433586   F   F   F
  0.7512060586454083  0.1597489944815891  0.2146764681566324   F   F   F
  0.7554892826415056  0.6638161254806718  0.7157323131119355   F   F   F
  0.7482643410208709  0.3358317034682159  0.2124213590962611   F   F   F
  0.7461924439531984  0.8417306010314931  0.7149999623139252   F   F   F
  0.2853435270636950  0.7540292373035058  0.0458691601043384   F   F   F
  0.2173755849797772  0.2497471840257219  0.5393208148189714   F   F   F
  0.7094246107716202  0.2479317413985598  0.9621284864452235   F   F   F
  0.7944575496917139  0.7514863711359183  0.4608125449229306   F   F   F
  0.1882200241460836  0.8380379993691704  0.0017091763333141   F   F   F
  0.3058837644217078  0.3465970606972419  0.5118825310127377   F   F   F
  0.1941372631433822  0.6592446483982357  0.0137273400466142   F   F   F
  0.3094490314187155  0.1558785868899477  0.5119377553766000   F   F   F
  0.8103235546567831  0.1636998264351277  0.9859913966519969   F   F   F
  0.6944130555695409  0.6690463784447545  0.4937210333910542   F   F   F
  0.8062603277640008  0.3367361965870330  0.9915095035534378   F   F   F
  0.6892967674254535  0.8301555179108533  0.4821328353969534   F   F   F
  0.0948203680297013  0.7464419898120198  0.0382953897212630   F   F   F
  0.3981387375075371  0.2528698350359804  0.5472543311848312   F   F   F
  0.9072477030805217  0.2531096158175572  0.9618424776767753   F   F   F
  0.5894977402829298  0.7453741597108845  0.4516406992778315   F   F   F
  0.0672521932526990  0.8567935394724415  0.9347546750337727   F   F   F
  0.4262964083063210  0.3633433007044857  0.4427556678105233   F   F   F
  0.0764597589608798  0.6291071489551712  0.9456827267151908   F   F   F
  0.4266472551359470  0.1495896593062369  0.4292386167378979   F   F   F
  0.9275170873827179  0.1402973532617366  0.0618514184104129   F   F   F
  0.5765509364993662  0.6343383860636393  0.5584639850232733   F   F   F
  0.9239601166550528  0.3685652859439514  0.0585469930732927   F   F   F
  0.5738992992662446  0.8529980925617124  0.5657211674831117   F   F   F
  0.1201177789523626  0.8342444488967615  0.7543083238458692   F   F   F
  0.3760314264034932  0.3369264251955286  0.2605822168054246   F   F   F
  0.1274898160969471  0.6620695722259171  0.7667715986906529   F   F   F
  0.3795680858816439  0.1628697098713374  0.2422798150738785   F   F   F
  0.8791314746660817  0.1628516335119912  0.2461047880119693   F   F   F
  0.6264742613643861  0.6621233562609703  0.7406498167484514   F   F   F
  0.8761711374951631  0.3376483586002834  0.2409438839947384   F   F   F
  0.6187902895966531  0.8358031061736142  0.7528579150324575   F   F   F
  0.1982721476378515  0.7489778540430621  0.6625596377354910   F   F   F
  0.2988716493286390  0.2525324172321817  0.1638706975988953   F   F   F
  0.8026179453560403  0.2501571337639774  0.3382186860418415   F   F   F
  0.6993071962390331  0.7493375252759051  0.8405265525973533   F   F   F
  0.4255330619415290  0.0632362837024019  0.6852539505035864   F   F   F
  0.0725998604202189  0.5657094894667125  0.1970971271533344   F   F   F
  0.4270545088628594  0.4376112172449780  0.6968433755624872   F   F   F
  0.0747855845338989  0.9328569768907116  0.1859154363341062   F   F   F
  0.5738207770953281  0.9357134118827730  0.3103196419831491   F   F   F
  0.9274291513620412  0.4356095711762222  0.8078158895990555   F   F   F
  0.5736202363030571  0.5607202873085626  0.3063582487531846   F   F   F
  0.9252380958373365  0.0668369462560108  0.8101907629524092   F   F   F
  0.3212307463173829  0.0320716284288309  0.8390581498690324   F   F   F
  0.1771555820176474  0.5313727498538370  0.3480280980423203   F   F   F
  0.3226980394650738  0.4696885476679071  0.8494431167983976   F   F   F
  0.1779279284587361  0.9705706031461219  0.3404696218542824   F   F   F
  0.6795124432502035  0.9693708826823411  0.1580534810361556   F   F   F
  0.8224258587067439  0.4687806540100468  0.6556172560544837   F   F   F
  0.6782235085879051  0.5295562091232640  0.1547006237246151   F   F   F
  0.8198956507447903  0.0308818825527553  0.6580752043464884   F   F   F
  0.2774521911921326  0.0542175529892575  0.0562120543609765   F   F   F
  0.2235610419708678  0.5497894064427911  0.5669303527610410   F   F   F
  0.2768005205552058  0.4527898294056527  0.0686118215326417   F   F   F
  0.2194259097911058  0.9471881239799771  0.5598258808508447   F   F   F
  0.7214951231827058  0.9492749299153402  0.9399696414675702   F   F   F
  0.7767265026217629  0.4500527387262707  0.4364670579927434   F   F   F
  0.7237162024612971  0.5484206966380469  0.9350305581512472   F   F   F
  0.7790033193222996  0.0501961092208134  0.4381140402833097   F   F   F
  0.1224506053467778  0.0574020797992461  0.0469530757931977   F   F   F
  0.3791057746726167  0.5584562482149664  0.5547443009029465   F   F   F
  0.1213331349756146  0.4445646801533059  0.0541645319988291   F   F   F
  0.3751679271986674  0.9389541401664374  0.5473153510569944   F   F   F
  0.8761785518125507  0.9428774882830098  0.9502435093148947   F   F   F
  0.6212086669417545  0.4385029245243075  0.4485218539919273   F   F   F
  0.8793610022847389  0.5582030470850299  0.9488036445222292   F   F   F
  0.6231975109491188  0.0588675224599342  0.4502057279228495   F   F   F
  0.0744984356895486  0.0368517676370033  0.8239562194519792   F   F   F
  0.4243629288682200  0.5398716886728963  0.3322600705000056   F   F   F
  0.0757104201660468  0.4608198098456739  0.8291486802109347   F   F   F
  0.4230975651408642  0.9608255162281623  0.3251357065675080   F   F   F
  0.9250261545581608  0.9603629511528382  0.1724808575457502   F   F   F
  0.5769888582813252  0.4593790892720122  0.6718809462283630   F   F   F
  0.9235792486905581  0.5413606150542023  0.1745694098446577   F   F   F
  0.5758269796149946  0.0369785765527979  0.6726145418134735   F   F   F
  0.2013090335399355  0.0719435690583623  0.7106910522220247   F   F   F
  0.2965187986482576  0.5765866484061419  0.2196278434029821   F   F   F
  0.2046707050908907  0.4246377267687151  0.7183762820067585   F   F   F
  0.2950089734808969  0.9313122479065399  0.2085478893311787   F   F   F
  0.7984610948566839  0.9266563549508859  0.2858426159936869   F   F   F
  0.7036578343386566  0.4234279056074612  0.7849593511665489   F   F   F
  0.7950416566555987  0.5758396302109787  0.2862060837103400   F   F   F
  0.7008927260848026  0.0724097945307633  0.7870778624223718   F   F   F
  0.4261225335606085  0.8298687214371299  0.6951776772520830   F   F   F
  0.0741635042397206  0.3294489162677365  0.1909298750664163   F   F   F
  0.4298083110969344  0.6710117725930971  0.6991377200993227   F   F   F
  0.0755449570567706  0.1718134995163041  0.1909558182177875   F   F   F
  0.5742836194484724  0.1698467168594746  0.3022962527710362   F   F   F
  0.9265481616259024  0.6720765059996978  0.8080965318356164   F   F   F
  0.5734060779091266  0.3276133789799900  0.3072021315232902   F   F   F
  0.9221835958329549  0.8296402468658570  0.8023792277364237   F   F   F
  0.3139443647414453  0.8754957302689235  0.8312742363285395   F   F   F
  0.1826399029005970  0.3736120574634683  0.3385900878495249   F   F   F
  0.3183690215879409  0.6271569837604289  0.8401236841991917   F   F   F
  0.1853297894169117  0.1274985400879842  0.3323164781568124   F   F   F
  0.6862417578622981  0.1254714432839705  0.1650064619631095   F   F   F
  0.8176272669389348  0.6259862219810657  0.6641078735548049   F   F   F
  0.6834922251497133  0.3728302969147137  0.1645009793370704   F   F   F
  0.8114373996349542  0.8745029971809259  0.6651556481785477   F   F   F
  0.2642101634806906  0.8309230228459157  0.0351638748327971   F   F   F
  0.2305081901827606  0.3294908537865382  0.5406746984854962   F   F   F
  0.2706120670803571  0.6731090984723735  0.0449509885748967   F   F   F
  0.2326134788410386  0.1700420746537930  0.5374591794820773   F   F   F
  0.7321202888955654  0.1706015362199835  0.9604113096541340   F   F   F
  0.7712788135729340  0.6734297959631874  0.4618867950582697   F   F   F
  0.7292936841707416  0.3268317717098554  0.9616595347473123   F   F   F
  0.7673058634354035  0.8277736160632472  0.4593219119630234   F   F   F
  0.1107061556225162  0.8252526437668095  0.0263948469212067   F   F   F
  0.3839103367121623  0.3329603632358058  0.5350000141219553   F   F   F
  0.1160235653692823  0.6674842469681650  0.0352280703927335   F   F   F
  0.3874646512616238  0.1733094272755267  0.5280131202506908   F   F   F
  0.8885334554688598  0.1742817561848398  0.9687115910315285   F   F   F
  0.6147995178450145  0.6674622823987519  0.4661259429343190   F   F   F
  0.8845152259524767  0.3315651509522652  0.9688718919402319   F   F   F
  0.6108748375591944  0.8246455219241966  0.4673596308387857   F   F   F
  0.0669234972599000  0.8771281780774842  0.8173794221938522   F   F   F
  0.4295766344193268  0.3803611918424394  0.3238749848658315   F   F   F
  0.0715997681131313  0.6191678518790980  0.8253153641405078   F   F   F
  0.4295257333201690  0.1229213810159848  0.3148601159350619   F   F   F
  0.9313136885160915  0.1201563402011558  0.1798221953010568   F   F   F
  0.5734866999530297  0.6178988905810172  0.6777317569447519   F   F   F
  0.9294828706607419  0.3825689293479968  0.1784249890222895   F   F   F
  0.5705316001666958  0.8783116104912381  0.6819985833635727   F   F   F
  0.1910499508546124  0.8260529292664103  0.7001098002847641   F   F   F
  0.3045030318308832  0.3283314289794177  0.2085558721509244   F   F   F
  0.1964791997574764  0.6730996115768733  0.7083459401606405   F   F   F
  0.3066545906416209  0.1742407834611939  0.1972026970255811   F   F   F
  0.8076496861992979  0.1730815213786059  0.2982090900021603   F   F   F
  0.6967609941930135  0.6732550509474038  0.7971262653303910   F   F   F
  0.8055914925350862  0.3267191761227579  0.2950185189890888   F   F   F
  0.6924274632158003  0.8262069098789553  0.8014708678914033   F   F   F
  0.3082030291629181  0.7636207186787729  0.3591126807976721   F   F   F
  0.4041762030304668  0.8059042483905472  0.2765785847124960   F   F   F
  0.3784894439345905  0.7157371251614890  0.4704416212822196   F   F   F
  0.4708559487535737  0.7520678742513454  0.3843600348377194   F   F   F
  0.4542376471007756  0.7236907033062892  0.2366963559149298   T   T   T
  0.4721339556966768  0.7720771753452951  0.1610264469715830   T   T   T
  0.4292988498018389  0.6764589717864453  0.2191288545590524   T   T   T
  0.5047053553521224  0.6949387246885337  0.3129724012702226   T   T   T
  0.4517048716503709  0.7643249911233951  0.0859805254342660   T   T   T
  0.5191515910383941  0.7987929923072914  0.1598600136491020   T   T   T
 
  0.00000000E+00  0.00000000E+00  0.00000000E+00
  0.00000000E+00  0.00000000E+00  0.00000000E+00
  0.00000000E+00  0.00000000E+00  0.00000000E+00
  0.00000000E+00  0.00000000E+00  0.00000000E+00
  0.00000000E+00  0.00000000E+00  0.00000000E+00
  0.00000000E+00  0.00000000E+00  0.00000000E+00
  0.00000000E+00  0.00000000E+00  0.00000000E+00
  0.00000000E+00  0.00000000E+00  0.00000000E+00
  0.00000000E+00  0.00000000E+00  0.00000000E+00
  0.00000000E+00  0.00000000E+00  0.00000000E+00
  0.00000000E+00  0.00000000E+00  0.00000000E+00
  0.00000000E+00  0.00000000E+00  0.00000000E+00
  0.00000000E+00  0.00000000E+00  0.00000000E+00
  0.00000000E+00  0.00000000E+00  0.00000000E+00
  0.00000000E+00  0.00000000E+00  0.00000000E+00
  0.00000000E+00  0.00000000E+00  0.00000000E+00
  0.00000000E+00  0.00000000E+00  0.00000000E+00
  0.00000000E+00  0.00000000E+00  0.00000000E+00
  0.00000000E+00  0.00000000E+00  0.00000000E+00
  0.00000000E+00  0.00000000E+00  0.00000000E+00
  0.00000000E+00  0.00000000E+00  0.00000000E+00
  0.00000000E+00  0.00000000E+00  0.00000000E+00
  0.00000000E+00  0.00000000E+00  0.00000000E+00
  0.00000000E+00  0.00000000E+00  0.00000000E+00
  0.00000000E+00  0.00000000E+00  0.00000000E+00
  0.00000000E+00  0.00000000E+00  0.00000000E+00
  0.00000000E+00  0.00000000E+00  0.00000000E+00
  0.00000000E+00  0.00000000E+00  0.00000000E+00
  0.00000000E+00  0.00000000E+00  0.00000000E+00
  0.00000000E+00  0.00000000E+00  0.00000000E+00
  0.00000000E+00  0.00000000E+00  0.00000000E+00
  0.00000000E+00  0.00000000E+00  0.00000000E+00
  0.00000000E+00  0.00000000E+00  0.00000000E+00
  0.00000000E+00  0.00000000E+00  0.00000000E+00
  0.00000000E+00  0.00000000E+00  0.00000000E+00
  0.00000000E+00  0.00000000E+00  0.00000000E+00
  0.00000000E+00  0.00000000E+00  0.00000000E+00
  0.00000000E+00  0.00000000E+00  0.00000000E+00
  0.00000000E+00  0.00000000E+00  0.00000000E+00
  0.00000000E+00  0.00000000E+00  0.00000000E+00
  0.00000000E+00  0.00000000E+00  0.00000000E+00
  0.00000000E+00  0.00000000E+00  0.00000000E+00
  0.00000000E+00  0.00000000E+00  0.00000000E+00
  0.00000000E+00  0.00000000E+00  0.00000000E+00
  0.00000000E+00  0.00000000E+00  0.00000000E+00
  0.00000000E+00  0.00000000E+00  0.00000000E+00
  0.00000000E+00  0.00000000E+00  0.00000000E+00
  0.00000000E+00  0.00000000E+00  0.00000000E+00
  0.00000000E+00  0.00000000E+00  0.00000000E+00
  0.00000000E+00  0.00000000E+00  0.00000000E+00
  0.00000000E+00  0.00000000E+00  0.00000000E+00
  0.00000000E+00  0.00000000E+00  0.00000000E+00
  0.00000000E+00  0.00000000E+00  0.00000000E+00
  0.00000000E+00  0.00000000E+00  0.00000000E+00
  0.00000000E+00  0.00000000E+00  0.00000000E+00
  0.00000000E+00  0.00000000E+00  0.00000000E+00
  0.00000000E+00  0.00000000E+00  0.00000000E+00
  0.00000000E+00  0.00000000E+00  0.00000000E+00
  0.00000000E+00  0.00000000E+00  0.00000000E+00
  0.00000000E+00  0.00000000E+00  0.00000000E+00
  0.00000000E+00  0.00000000E+00  0.00000000E+00
  0.00000000E+00  0.00000000E+00  0.00000000E+00
  0.00000000E+00  0.00000000E+00  0.00000000E+00
  0.00000000E+00  0.00000000E+00  0.00000000E+00
  0.00000000E+00  0.00000000E+00  0.00000000E+00
  0.00000000E+00  0.00000000E+00  0.00000000E+00
  0.00000000E+00  0.00000000E+00  0.00000000E+00
  0.00000000E+00  0.00000000E+00  0.00000000E+00
  0.00000000E+00  0.00000000E+00  0.00000000E+00
  0.00000000E+00  0.00000000E+00  0.00000000E+00
  0.00000000E+00  0.00000000E+00  0.00000000E+00
  0.00000000E+00  0.00000000E+00  0.00000000E+00
  0.00000000E+00  0.00000000E+00  0.00000000E+00
  0.00000000E+00  0.00000000E+00  0.00000000E+00
  0.00000000E+00  0.00000000E+00  0.00000000E+00
  0.00000000E+00  0.00000000E+00  0.00000000E+00
  0.00000000E+00  0.00000000E+00  0.00000000E+00
  0.00000000E+00  0.00000000E+00  0.00000000E+00
  0.00000000E+00  0.00000000E+00  0.00000000E+00
  0.00000000E+00  0.00000000E+00  0.00000000E+00
  0.00000000E+00  0.00000000E+00  0.00000000E+00
  0.00000000E+00  0.00000000E+00  0.00000000E+00
  0.00000000E+00  0.00000000E+00  0.00000000E+00
  0.00000000E+00  0.00000000E+00  0.00000000E+00
  0.00000000E+00  0.00000000E+00  0.00000000E+00
  0.00000000E+00  0.00000000E+00  0.00000000E+00
  0.00000000E+00  0.00000000E+00  0.00000000E+00
  0.00000000E+00  0.00000000E+00  0.00000000E+00
  0.00000000E+00  0.00000000E+00  0.00000000E+00
  0.00000000E+00  0.00000000E+00  0.00000000E+00
  0.00000000E+00  0.00000000E+00  0.00000000E+00
  0.00000000E+00  0.00000000E+00  0.00000000E+00
  0.00000000E+00  0.00000000E+00  0.00000000E+00
  0.00000000E+00  0.00000000E+00  0.00000000E+00
  0.00000000E+00  0.00000000E+00  0.00000000E+00
  0.00000000E+00  0.00000000E+00  0.00000000E+00
  0.00000000E+00  0.00000000E+00  0.00000000E+00
  0.00000000E+00  0.00000000E+00  0.00000000E+00
  0.00000000E+00  0.00000000E+00  0.00000000E+00
  0.00000000E+00  0.00000000E+00  0.00000000E+00
  0.00000000E+00  0.00000000E+00  0.00000000E+00
  0.00000000E+00  0.00000000E+00  0.00000000E+00
  0.00000000E+00  0.00000000E+00  0.00000000E+00
  0.00000000E+00  0.00000000E+00  0.00000000E+00
  0.00000000E+00  0.00000000E+00  0.00000000E+00
  0.00000000E+00  0.00000000E+00  0.00000000E+00
  0.00000000E+00  0.00000000E+00  0.00000000E+00
  0.00000000E+00  0.00000000E+00  0.00000000E+00
  0.00000000E+00  0.00000000E+00  0.00000000E+00
  0.00000000E+00  0.00000000E+00  0.00000000E+00
  0.00000000E+00  0.00000000E+00  0.00000000E+00
  0.00000000E+00  0.00000000E+00  0.00000000E+00
  0.00000000E+00  0.00000000E+00  0.00000000E+00
  0.00000000E+00  0.00000000E+00  0.00000000E+00
  0.00000000E+00  0.00000000E+00  0.00000000E+00
  0.00000000E+00  0.00000000E+00  0.00000000E+00
  0.00000000E+00  0.00000000E+00  0.00000000E+00
  0.00000000E+00  0.00000000E+00  0.00000000E+00
  0.00000000E+00  0.00000000E+00  0.00000000E+00
  0.00000000E+00  0.00000000E+00  0.00000000E+00
  0.00000000E+00  0.00000000E+00  0.00000000E+00
  0.00000000E+00  0.00000000E+00  0.00000000E+00
  0.00000000E+00  0.00000000E+00  0.00000000E+00
  0.00000000E+00  0.00000000E+00  0.00000000E+00
  0.00000000E+00  0.00000000E+00  0.00000000E+00
  0.00000000E+00  0.00000000E+00  0.00000000E+00
  0.00000000E+00  0.00000000E+00  0.00000000E+00
  0.00000000E+00  0.00000000E+00  0.00000000E+00
  0.00000000E+00  0.00000000E+00  0.00000000E+00
  0.00000000E+00  0.00000000E+00  0.00000000E+00
  0.00000000E+00  0.00000000E+00  0.00000000E+00
  0.00000000E+00  0.00000000E+00  0.00000000E+00
  0.00000000E+00  0.00000000E+00  0.00000000E+00
  0.00000000E+00  0.00000000E+00  0.00000000E+00
  0.00000000E+00  0.00000000E+00  0.00000000E+00
  0.00000000E+00  0.00000000E+00  0.00000000E+00
  0.00000000E+00  0.00000000E+00  0.00000000E+00
  0.00000000E+00  0.00000000E+00  0.00000000E+00
  0.00000000E+00  0.00000000E+00  0.00000000E+00
  0.00000000E+00  0.00000000E+00  0.00000000E+00
  0.00000000E+00  0.00000000E+00  0.00000000E+00
  0.00000000E+00  0.00000000E+00  0.00000000E+00
  0.00000000E+00  0.00000000E+00  0.00000000E+00
  0.00000000E+00  0.00000000E+00  0.00000000E+00
  0.00000000E+00  0.00000000E+00  0.00000000E+00
  0.00000000E+00  0.00000000E+00  0.00000000E+00
  0.00000000E+00  0.00000000E+00  0.00000000E+00
  0.00000000E+00  0.00000000E+00  0.00000000E+00
  0.00000000E+00  0.00000000E+00  0.00000000E+00
  0.00000000E+00  0.00000000E+00  0.00000000E+00
  0.00000000E+00  0.00000000E+00  0.00000000E+00
  0.00000000E+00  0.00000000E+00  0.00000000E+00
  0.00000000E+00  0.00000000E+00  0.00000000E+00
  0.00000000E+00  0.00000000E+00  0.00000000E+00
  0.00000000E+00  0.00000000E+00  0.00000000E+00
  0.00000000E+00  0.00000000E+00  0.00000000E+00
  0.00000000E+00  0.00000000E+00  0.00000000E+00
  0.00000000E+00  0.00000000E+00  0.00000000E+00
  0.00000000E+00  0.00000000E+00  0.00000000E+00
  0.00000000E+00  0.00000000E+00  0.00000000E+00
  0.00000000E+00  0.00000000E+00  0.00000000E+00