O  Si Ru C  H                           
   1.00000000000000     
    20.3096463179830877    0.0000000000000000    0.0000000000000000
     0.0000000000000000   19.8625212307842212    0.0000000000000000
     0.0000000000000000    0.0000000000000000   13.3711533343531652
   O    Si   Ru   C    H 
   192    96     3     2     2
Selective dynamics
Direct
  0.5028573669886356  0.0735897283207692  0.7057015627121430   F   F   F
  0.9971177128372162  0.5701255439990121  0.2100722311288337   F   F   F
  0.5029831027560618  0.4266168638362160  0.7056090704702882   F   F   F
  0.9971359947858147  0.9299293610266730  0.2100798894834952   F   F   F
  0.4973198000855135  0.9255327774920659  0.2930828668063370   F   F   F
  0.0035573807590907  0.4285920847838511  0.7894271155678112   F   F   F
  0.4972906139377216  0.5744469041773499  0.2933053955958584   F   F   F
  0.0034491317497185  0.0713511622521494  0.7894367895572429   F   F   F
  0.3888548777808225  0.0655908714572320  0.7985351768254105   F   F   F
  0.1126161044208587  0.5675053720486858  0.2979703461911001   F   F   F
  0.3888913662630529  0.4346394833495779  0.7984432456889934   F   F   F
  0.1126870015723327  0.9326072619803085  0.2982301454698089   F   F   F
  0.6112706059172055  0.9351861990842210  0.1995671212269130   F   F   F
  0.8876137357063314  0.4318340478872784  0.7019780390863630   F   F   F
  0.6113475990328752  0.5649412529170377  0.1995438500958855   F   F   F
  0.8876920049046220  0.0681416848644218  0.7019569560379608   F   F   F
  0.4000774743464461  0.1397745204699206  0.6343839036120400   F   F   F
  0.0966156981911439  0.6387903985106149  0.1331561786997213   F   F   F
  0.3999460046731116  0.3603249340274175  0.6343658223286752   F   F   F
  0.0966311389365373  0.8611804413338788  0.1333873277241366   F   F   F
  0.6029067204098482  0.8637519431463900  0.3649682140715527   F   F   F
  0.9036754292863804  0.3610708803973068  0.8673252989554072   F   F   F
  0.6029047549897300  0.6366273730037904  0.3650695892196367   F   F   F
  0.9036730786333678  0.1388961174849257  0.8673697221373757   F   F   F
  0.4051994109889918  0.0059629874525271  0.6217320191725122   F   F   F
  0.0958387168520076  0.5043005943266081  0.1236616574607723   F   F   F
  0.4052744106620096  0.4941354444339154  0.6217864398463604   F   F   F
  0.0959692684220030  0.9956963465701278  0.1235737516837645   F   F   F
  0.5937942514537511  0.9975277853663442  0.3732988908045556   F   F   F
  0.9056958223280844  0.4952521214031762  0.8754194649163409   F   F   F
  0.5938845692012436  0.5027157996966238  0.3731689631477906   F   F   F
  0.9057072009297684  0.0047268412518306  0.8754812026245062   F   F   F
  0.3234791700028410  0.0394275377852153  0.9648023221786346   F   F   F
  0.1756759915620805  0.5374386785387486  0.4651594897456377   F   F   F
  0.3234956840851666  0.4606222917098819  0.9648480987119967   F   F   F
  0.1756238504058700  0.9624510943245213  0.4652761647641910   F   F   F
  0.6780694532137375  0.9622678912859470  0.0349649631948594   F   F   F
  0.8238102250619832  0.4615824910342496  0.5354315180413565   F   F   F
  0.6780598707888288  0.5378100260956558  0.0353001729327644   F   F   F
  0.8239144661104163  0.0383857762249136  0.5353329330938337   F   F   F
  0.3188120312328309  0.9542503014358346  0.8087918666131060   F   F   F
  0.1785976733102714  0.4537256607520703  0.3065486645284423   F   F   F
  0.3185580264058459  0.5454183765886569  0.8090241330536614   F   F   F
  0.1786510942901032  0.0462404100241827  0.3065702128487828   F   F   F
  0.6820284415318767  0.0465489068974492  0.1921849961000603   F   F   F
  0.8213639244960405  0.5454125389670139  0.6933134375172330   F   F   F
  0.6819764274091966  0.4536476091352100  0.1922569352614119   F   F   F
  0.8213127192412699  0.9545705014740804  0.6933286985499194   F   F   F
  0.2576909933527887  0.0710306908515577  0.8007488278117663   F   F   F
  0.2439941139678439  0.5682922245170943  0.3045885659335994   F   F   F
  0.2577195413220608  0.4290401465196609  0.8007948817816057   F   F   F
  0.2440650630740606  0.9316406937217749  0.3043429500085253   F   F   F
  0.7425627530575269  0.9296553267917957  0.1994989236597604   F   F   F
  0.7562444515009901  0.4303824823231963  0.6968972255382440   F   F   F
  0.7424516030042909  0.5703795396897817  0.1993721433147897   F   F   F
  0.7563935568438538  0.0696628576323235  0.6967171149400002   F   F   F
  0.2917747120564655  0.1257156953860061  0.1068122534272717   F   F   F
  0.2085057636639362  0.6246244976204949  0.6067073366223852   F   F   F
  0.2918130134197625  0.3743788213575101  0.1069325622652855   F   F   F
  0.2082542921899204  0.8755561434551282  0.6063880698250586   F   F   F
  0.7091962190335082  0.8735418782868436  0.8949637876345662   F   F   F
  0.7912279300773832  0.3754575257679917  0.3927838594991684   F   F   F
  0.7092926176859180  0.6264133774178475  0.8953766230727069   F   F   F
  0.7912375546271448  0.1246109100543507  0.3927966451750535   F   F   F
  0.1998819535998848  0.0449210431178031  0.0270985755776252   F   F   F
  0.2987879724978910  0.5415859930765166  0.5293860126443519   F   F   F
  0.1999578577200651  0.4552018695408080  0.0272396784163433   F   F   F
  0.2986545876875084  0.9583840370017072  0.5295045052837608   F   F   F
  0.8013201148985232  0.9554837034993184  0.9710734185761041   F   F   F
  0.7006213652985309  0.4592980335293149  0.4691103594446417   F   F   F
  0.8013390796096544  0.5446251616332063  0.9708090301278816   F   F   F
  0.7007902295013935  0.0407301782624288  0.4691420128926538   F   F   F
  0.2930098357565498  0.9952765819358120  0.1453416335279556   F   F   F
  0.2040917423969049  0.4946183495462577  0.6477090307287199   F   F   F
  0.2930268070487969  0.5047772266816963  0.1454219497254172   F   F   F
  0.2039793337093201  0.0052370741639720  0.6474542982287872   F   F   F
  0.7071474224288394  0.0028897085824013  0.8522081698178567   F   F   F
  0.7971565823913735  0.5057081219502990  0.3530949151847409   F   F   F
  0.7069749303126684  0.4974060972983665  0.8520223623404348   F   F   F
  0.7971590315518426  0.9943633407622485  0.3532296120297644   F   F   F
  0.1085892656830723  0.1281051082473255  0.0976250808896211   F   F   F
  0.3886842136118815  0.6251526053081875  0.6035333006274968   F   F   F
  0.1087164884992120  0.3719520285845022  0.0977294649279088   F   F   F
  0.3887237288333054  0.8745434892067152  0.6037273077367047   F   F   F
  0.8929359367118863  0.8724378584557471  0.9011969802155733   F   F   F
  0.6103455511961045  0.3722940350526116  0.4054560659668809   F   F   F
  0.8930124796483270  0.6276098578457763  0.9010725313078751   F   F   F
  0.6105316587022500  0.1279317232092794  0.4056523132123999   F   F   F
  0.0807835519969373  0.0483604340272379  0.9453028742731533   F   F   F
  0.4170820164004994  0.5501132638640200  0.4447326153625539   F   F   F
  0.0807638578109362  0.4516592871856204  0.9452039948240767   F   F   F
  0.4167976825515538  0.9497527523734348  0.4449684407672976   F   F   F
  0.9199530351945882  0.9518382976785063  0.0539373876447584   F   F   F
  0.5832232457177753  0.4549496033941978  0.5547573729156170   F   F   F
  0.9199116548584030  0.5482473061312376  0.0539612145043336   F   F   F
  0.5833111511977123  0.0451126529647610  0.5549912989598269   F   F   F
  0.1303009939716731  0.0807609029406251  0.7671480927374787   F   F   F
  0.3705607587127560  0.5779638053296310  0.2618116297378776   F   F   F
  0.1301619767539037  0.4194592997399837  0.7671597072048044   F   F   F
  0.3705537782063857  0.9219724343486178  0.2611764438661197   F   F   F
  0.8701118779954982  0.9191370837786010  0.2320386175253830   F   F   F
  0.6289032903682141  0.4253963395928153  0.7357476107181924   F   F   F
  0.8701741150769209  0.5809327672494433  0.2320918803387499   F   F   F
  0.6289017905644769  0.0746427063521722  0.7357497342390857   F   F   F
  0.0773198793347447  0.9607654587438077  0.7943855420178210   F   F   F
  0.4274958729366389  0.4615759287074184  0.2971939890421993   F   F   F
  0.0770190763866410  0.5393662287783840  0.7945231808282642   F   F   F
  0.4274153119980753  0.0383664444165603  0.2970697564673230   F   F   F
  0.9218359889924841  0.0396432134316882  0.2052805666574287   F   F   F
  0.5681862834293128  0.5416577793833000  0.7041515628727879   F   F   F
  0.9217863606841803  0.4604194505429362  0.2052638775198901   F   F   F
  0.5681459530145361  0.9578148784208622  0.7044281277471711   F   F   F
  0.2140472946661873  0.1396250468225588  0.6475925389837585   F   F   F
  0.2831383005880781  0.6391324274904449  0.1506020055890787   F   F   F
  0.2140657519689739  0.3605144413135832  0.6474791243849651   F   F   F
  0.2832369612396946  0.8608986767671922  0.1505402651086669   F   F   F
  0.7863746891789063  0.8600786882922549  0.3524992437508061   F   F   F
  0.7124195236132849  0.3626948151356117  0.8522149809783954   F   F   F
  0.7863203313174125  0.6398143272648298  0.3523919809907312   F   F   F
  0.7123899724367249  0.1375128085286903  0.8519624713747049   F   F   F
  0.4988470795269606  0.8445588827936987  0.7082535610439180   F   F   F
  0.0028415283653089  0.3559088352572743  0.2143550551451128   F   F   F
  0.4986917604198240  0.6554574127299873  0.7084384200780818   F   F   F
  0.0029197541080705  0.1441894975743736  0.2143013121577368   F   F   F
  0.5033064860170100  0.1471238240090429  0.2905974260036075   F   F   F
  0.9989503364858194  0.6461443257785007  0.7839199255792337   F   F   F
  0.5032895973525555  0.3528829990759093  0.2904948045228082   F   F   F
  0.9989615016738824  0.8541649097181434  0.7841798814846470   F   F   F
  0.3838083757464048  0.8382767467238850  0.7956608476388070   F   F   F
  0.1196870736538145  0.3349075001035970  0.2889977576540517   F   F   F
  0.3836694472815836  0.6615461241779457  0.7960071680925012   F   F   F
  0.1197690710389097  0.1650525717374762  0.2888489523766040   F   F   F
  0.6200953607353696  0.1636174307018123  0.2125558461944550   F   F   F
  0.8813467683969591  0.6640531312430937  0.7096585729933480   F   F   F
  0.6200694474017538  0.3363372869429284  0.2127125511030812   F   F   F
  0.8813579613894476  0.8361046697829124  0.7096401542030293   F   F   F
  0.4128656814191700  0.7500854012269116  0.6503815889291999   F   F   F
  0.0729276372669574  0.2499755701284698  0.1527688508532421   F   F   F
  0.5777650258835720  0.2500758852925458  0.3507629828698811   F   F   F
  0.9262219836640355  0.7500394207323922  0.8459950403609255   F   F   F
  0.3151896736202389  0.8671101747968919  0.9579756276003550   F   F   F
  0.1827828104382050  0.3674361403321740  0.4556681262234505   F   F   F
  0.3152836942184791  0.6329409692229717  0.9581385483865645   F   F   F
  0.1827928426480767  0.1326879123328268  0.4555317777664882   F   F   F
  0.6825350638316650  0.1351234389415907  0.0448298892908952   F   F   F
  0.8169243119685206  0.6319522281592072  0.5436502161231331   F   F   F
  0.6825818206569565  0.3649549723296346  0.0447500219827006   F   F   F
  0.8170605548083145  0.8681160141580904  0.5436780723856245   F   F   F
  0.2533153157707773  0.8398510282028440  0.7872794448737110   F   F   F
  0.2501577829667099  0.3425029816528848  0.2900550089745337   F   F   F
  0.2533871189169830  0.6601868323312132  0.7875952736260317   F   F   F
  0.2501432054706569  0.1574736233006817  0.2900739366184553   F   F   F
  0.7506086345541121  0.1593761768464219  0.2099237675316417   F   F   F
  0.7511319278043587  0.6569405226009266  0.7105439510770140   F   F   F
  0.7505997121290804  0.3406183086835881  0.2099197754745319   F   F   F
  0.7510312782867814  0.8430196772218466  0.7106426618418098   F   F   F
  0.2955388827186880  0.7500265651009386  0.0473268431228249   F   F   F
  0.2021780464133016  0.2501403711043011  0.5428592921666180   F   F   F
  0.7052367192829365  0.2501706237546557  0.9514634127266604   F   F   F
  0.8011662276563030  0.7499966499105852  0.4571879154233756   F   F   F
  0.1945947943618123  0.8324586720515228  0.0094415935802061   F   F   F
  0.3033440119924080  0.3323741486225131  0.5082841578001478   F   F   F
  0.1947793116142549  0.6676414134860309  0.0094699262833302   F   F   F
  0.3033038233244909  0.1677337661206337  0.5083849349829848   F   F   F
  0.8037159231034323  0.1647848972706996  0.9888946321105720   F   F   F
  0.6982119533714837  0.6710765661728502  0.4913427095129848   F   F   F
  0.8036511095106960  0.3352999622307848  0.9889494312148557   F   F   F
  0.6981459590733436  0.8290704324056648  0.4914478892767562   F   F   F
  0.0916529365492238  0.7499362377834942  0.0256831899859478   F   F   F
  0.4062339765216123  0.2501206547950972  0.5246825250410012   F   F   F
  0.9047638748600875  0.2500171702398930  0.9751624477886125   F   F   F
  0.5937100486064963  0.7500986392974980  0.4664918418275761   F   F   F
  0.0796633260615565  0.8691758464912454  0.9379940835731801   F   F   F
  0.4189406915486558  0.3698719408913007  0.4394919136841011   F   F   F
  0.0796732553071422  0.6309903666488097  0.9374553414017370   F   F   F
  0.4189713843573628  0.1302481659958588  0.4393214104985788   F   F   F
  0.9190268856430848  0.1316546077502068  0.0635814723588695   F   F   F
  0.5830149926625552  0.6320239997454635  0.5623002484746493   F   F   F
  0.9190804282903215  0.3683365609826339  0.0635141850381231   F   F   F
  0.5830571964185225  0.8679762632638131  0.5621337641036988   F   F   F
  0.1254478298325026  0.8401405377642845  0.7540309944457562   F   F   F
  0.3774098617897650  0.3422347200487508  0.2524376385024638   F   F   F
  0.1254305255892092  0.6598151129125895  0.7536328982972194   F   F   F
  0.3774353036922875  0.1579132212566350  0.2523067099515544   F   F   F
  0.8773643799942832  0.1607425589965672  0.2499248929752440   F   F   F
  0.6239994289736828  0.6587649544017324  0.7493481398267932   F   F   F
  0.8774235731329512  0.3392875584477437  0.2498676835875173   F   F   F
  0.6240276587853444  0.8411473925946780  0.7493149913068606   F   F   F
  0.2007269627727979  0.7499733562785735  0.6645682179646570   F   F   F
  0.3013006471737398  0.2501002009037308  0.1692675227718325   F   F   F
  0.7992911167590009  0.2499636080385557  0.3357837622235635   F   F   F
  0.7011259613293888  0.7501560590162271  0.8318569609666184   F   F   F
  0.4239416403591321  0.0707138040160373  0.6892216514267062   F   F   F
  0.0756599492352876  0.5696795226773119  0.1903175430697388   F   F   F
  0.4238503915518805  0.4292674105379248  0.6892940047349683   F   F   F
  0.0755457686063608  0.9303445293884707  0.1901502865623073   F   F   F
  0.5762343150662375  0.9306056618321179  0.3085325023191245   F   F   F
  0.9249864615889649  0.4296691126808554  0.8095849886799229   F   F   F
  0.5762428896553544  0.5691875920442158  0.3085844429267155   F   F   F
  0.9250213572527812  0.0703544576493300  0.8095531763148855   F   F   F
  0.3222731305832625  0.0325457008513297  0.8438054549750262   F   F   F
  0.1779651122706980  0.5318923238182691  0.3445432109832538   F   F   F
  0.3221629077002746  0.4676770622078479  0.8438951117727100   F   F   F
  0.1778868007136012  0.9681128957650245  0.3441809947446899   F   F   F
  0.6782653789718509  0.9683192976307851  0.1558358233919392   F   F   F
  0.8221347780241430  0.4673717864239961  0.6561135609525195   F   F   F
  0.6782770492222738  0.5316112102124748  0.1554894869048340   F   F   F
  0.8219172813339100  0.0328031042115811  0.6561915715921529   F   F   F
  0.2768606350532323  0.0516294834979192  0.0614100785565839   F   F   F
  0.2223281993019341  0.5499685767361555  0.5622567070915636   F   F   F
  0.2768691185323888  0.4484007975436128  0.0613694033521810   F   F   F
  0.2222464383799192  0.9501298342427447  0.5625936870196000   F   F   F
  0.7243018682579603  0.9485199619290370  0.9379194432601210   F   F   F
  0.7777971841956060  0.4503507193610616  0.4372381579353188   F   F   F
  0.7243978763516381  0.5515895543501657  0.9380211433509089   F   F   F
  0.7777722017141429  0.0496316583817134  0.4372176291179244   F   F   F
  0.1217028175754891  0.0541768826535218  0.0488735839742063   F   F   F
  0.3770610513167014  0.5531812210182707  0.5489871514005600   F   F   F
  0.1217291821168658  0.4457798758796443  0.0489153679961305   F   F   F
  0.3772247764843399  0.9471059860206097  0.5488832728965178   F   F   F
  0.8794920987908412  0.9460040373513507  0.9502516256868461   F   F   F
  0.6224998007506812  0.4471557689702763  0.4502257967602006   F   F   F
  0.8794998584281970  0.5540301474522593  0.9500929513630894   F   F   F
  0.6224652382996894  0.0528303981696610  0.4503428788044062   F   F   F
  0.0731651851917476  0.0396161648022328  0.8250093557101223   F   F   F
  0.4282166198623329  0.5414864723620454  0.3259635114838346   F   F   F
  0.0731190262467436  0.4604447976347572  0.8250452497296124   F   F   F
  0.4281895469701453  0.9585959263452395  0.3256182296862278   F   F   F
  0.9270793426395656  0.9605263412407083  0.1743569682095583   F   F   F
  0.5711425683795568  0.4633805429679612  0.6742527691990716   F   F   F
  0.9271190710385468  0.5394439930999297  0.1742356236809215   F   F   F
  0.5711783612292791  0.0370082492800350  0.6740659540031757   F   F   F
  0.2018746920625745  0.0731511754740950  0.7147516038810124   F   F   F
  0.2980668951196392  0.5716776085049489  0.2149888541148002   F   F   F
  0.2018507732727670  0.4270088706846238  0.7147588114765995   F   F   F
  0.2980870701007134  0.9283934242317500  0.2147270443658655   F   F   F
  0.7988334312838106  0.9266926740039167  0.2850443219838255   F   F   F
  0.7012785445782015  0.4296635043041022  0.7851356490358938   F   F   F
  0.7989494675137578  0.5733566125931233  0.2852034940726611   F   F   F
  0.7013043323867336  0.0704411848054036  0.7852883739234358   F   F   F
  0.4218370275789525  0.8280394412354539  0.6900027632346024   F   F   F
  0.0758113302474825  0.3283482696278810  0.1879855004725073   F   F   F
  0.4221422263845085  0.6720444048543328  0.6897560526297042   F   F   F
  0.0758730192856731  0.1717196633489877  0.1878537759102343   F   F   F
  0.5773665330529809  0.1719656309824273  0.3153035746506561   F   F   F
  0.9251168363084687  0.6718407960341324  0.8108454927247664   F   F   F
  0.5775077068104935  0.3280986154273648  0.3152625747708910   F   F   F
  0.9252341542971223  0.8282845129147560  0.8109744083271977   F   F   F
  0.3173696302678053  0.8749507172610151  0.8368607642167802   F   F   F
  0.1829686007514866  0.3745798215685383  0.3347787649119738   F   F   F
  0.3172479193803852  0.6250921828553828  0.8371276028391392   F   F   F
  0.1830224666577038  0.1255377921575516  0.3348263970604393   F   F   F
  0.6836374192304788  0.1262732058864131  0.1653609835529721   F   F   F
  0.8180210551829390  0.6247704795551741  0.6646054318730279   F   F   F
  0.6836246089957072  0.3736531186699708  0.1654290175416122   F   F   F
  0.8178912771923379  0.8751775401870674  0.6647632718701928   F   F   F
  0.2715146960333783  0.8279368776207008  0.0407757710065155   F   F   F
  0.2263526346279150  0.3275915904920197  0.5389353065270939   F   F   F
  0.2714387527673168  0.6721439479442779  0.0408378696953022   F   F   F
  0.2262722360249043  0.1725620138078128  0.5390042091681551   F   F   F
  0.7263031485119598  0.1717706825977814  0.9588324101201451   F   F   F
  0.7755730567868184  0.6733031193113845  0.4604713741527746   F   F   F
  0.7262879895753613  0.3282163926887947  0.9589536812484241   F   F   F
  0.7755537387594700  0.8265629950424156  0.4603468413510683   F   F   F
  0.1156101389001023  0.8280529281729159  0.0268842793475770   F   F   F
  0.3820124782267555  0.3278169314577397  0.5268294170324026   F   F   F
  0.1155746797885158  0.6721113110203802  0.0269561796051647   F   F   F
  0.3820099061589275  0.1721722439220130  0.5267963436145493   F   F   F
  0.8824378785842697  0.1715239490696021  0.9735839103137920   F   F   F
  0.6193761679250400  0.6724459312240540  0.4710091483018459   F   F   F
  0.8824338877790865  0.3284453388788222  0.9735996043843045   F   F   F
  0.6195056394085796  0.8276891754908107  0.4708307934798555   F   F   F
  0.0705931383629590  0.8807827111237216  0.8179060701365870   F   F   F
  0.4312656891234354  0.3817495751605549  0.3202735259636000   F   F   F
  0.0706259648489080  0.6193842756861727  0.8177285041434388   F   F   F
  0.4311891218063195  0.1182509521498858  0.3201707651282106   F   F   F
  0.9298057675344609  0.1191073959241180  0.1828396687362499   F   F   F
  0.5692233777961704  0.6227176554431892  0.6796396517533481   F   F   F
  0.9298272893125130  0.3808224031762180  0.1829231115382441   F   F   F
  0.5692165915364455  0.8779580964136571  0.6802045398292336   F   F   F
  0.1967914406876403  0.8271898996937495  0.7031218818879452   F   F   F
  0.3054628931253092  0.3279123484514983  0.2048306165076426   F   F   F
  0.1968919694187079  0.6727757674393473  0.7029035273553532   F   F   F
  0.3054542055001335  0.1722149760506611  0.2048409126954951   F   F   F
  0.8047058362147155  0.1727924566334096  0.2971283462887158   F   F   F
  0.6961266643269610  0.6721258244376926  0.7964049355178062   F   F   F
  0.8046486338149279  0.3272983049034721  0.2972061648866386   F   F   F
  0.6961963762839218  0.8280360688539545  0.7964632219545749   F   F   F
  0.4690035496880540  0.7485191609060422  0.3389375166645223   F   F   F
  0.3498211979382972  0.7496543306626862  0.2975748254679047   F   F   F
  0.3872910418129578  0.7501373386313901  0.4612948440987310   F   F   F
  0.4808317400837652  0.7496826951082554  0.1899147195949098   T   T   T
  0.5313116618600233  0.7511331538894623  0.1372027811756311   T   T   T
  0.5739650849345139  0.7510981709726323  0.0912293128568251   T   T   T
  0.4103496530769206  0.7484927208225614  0.1949861604553036   T   T   T
 
  0.00000000E+00  0.00000000E+00  0.00000000E+00
  0.00000000E+00  0.00000000E+00  0.00000000E+00
  0.00000000E+00  0.00000000E+00  0.00000000E+00
  0.00000000E+00  0.00000000E+00  0.00000000E+00
  0.00000000E+00  0.00000000E+00  0.00000000E+00
  0.00000000E+00  0.00000000E+00  0.00000000E+00
  0.00000000E+00  0.00000000E+00  0.00000000E+00
  0.00000000E+00  0.00000000E+00  0.00000000E+00
  0.00000000E+00  0.00000000E+00  0.00000000E+00
  0.00000000E+00  0.00000000E+00  0.00000000E+00
  0.00000000E+00  0.00000000E+00  0.00000000E+00
  0.00000000E+00  0.00000000E+00  0.00000000E+00
  0.00000000E+00  0.00000000E+00  0.00000000E+00
  0.00000000E+00  0.00000000E+00  0.00000000E+00
  0.00000000E+00  0.00000000E+00  0.00000000E+00
  0.00000000E+00  0.00000000E+00  0.00000000E+00
  0.00000000E+00  0.00000000E+00  0.00000000E+00
  0.00000000E+00  0.00000000E+00  0.00000000E+00
  0.00000000E+00  0.00000000E+00  0.00000000E+00
  0.00000000E+00  0.00000000E+00  0.00000000E+00
  0.00000000E+00  0.00000000E+00  0.00000000E+00
  0.00000000E+00  0.00000000E+00  0.00000000E+00
  0.00000000E+00  0.00000000E+00  0.00000000E+00
  0.00000000E+00  0.00000000E+00  0.00000000E+00
  0.00000000E+00  0.00000000E+00  0.00000000E+00
  0.00000000E+00  0.00000000E+00  0.00000000E+00
  0.00000000E+00  0.00000000E+00  0.00000000E+00
  0.00000000E+00  0.00000000E+00  0.00000000E+00
  0.00000000E+00  0.00000000E+00  0.00000000E+00
  0.00000000E+00  0.00000000E+00  0.00000000E+00
  0.00000000E+00  0.00000000E+00  0.00000000E+00
  0.00000000E+00  0.00000000E+00  0.00000000E+00
  0.00000000E+00  0.00000000E+00  0.00000000E+00
  0.00000000E+00  0.00000000E+00  0.00000000E+00
  0.00000000E+00  0.00000000E+00  0.00000000E+00
  0.00000000E+00  0.00000000E+00  0.00000000E+00
  0.00000000E+00  0.00000000E+00  0.00000000E+00
  0.00000000E+00  0.00000000E+00  0.00000000E+00
  0.00000000E+00  0.00000000E+00  0.00000000E+00
  0.00000000E+00  0.00000000E+00  0.00000000E+00
  0.00000000E+00  0.00000000E+00  0.00000000E+00
  0.00000000E+00  0.00000000E+00  0.00000000E+00
  0.00000000E+00  0.00000000E+00  0.00000000E+00
  0.00000000E+00  0.00000000E+00  0.00000000E+00
  0.00000000E+00  0.00000000E+00  0.00000000E+00
  0.00000000E+00  0.00000000E+00  0.00000000E+00
  0.00000000E+00  0.00000000E+00  0.00000000E+00
  0.00000000E+00  0.00000000E+00  0.00000000E+00
  0.00000000E+00  0.00000000E+00  0.00000000E+00
  0.00000000E+00  0.00000000E+00  0.00000000E+00
  0.00000000E+00  0.00000000E+00  0.00000000E+00
  0.00000000E+00  0.00000000E+00  0.00000000E+00
  0.00000000E+00  0.00000000E+00  0.00000000E+00
  0.00000000E+00  0.00000000E+00  0.00000000E+00
  0.00000000E+00  0.00000000E+00  0.00000000E+00
  0.00000000E+00  0.00000000E+00  0.00000000E+00
  0.00000000E+00  0.00000000E+00  0.00000000E+00
  0.00000000E+00  0.00000000E+00  0.00000000E+00
  0.00000000E+00  0.00000000E+00  0.00000000E+00
  0.00000000E+00  0.00000000E+00  0.00000000E+00
  0.00000000E+00  0.00000000E+00  0.00000000E+00
  0.00000000E+00  0.00000000E+00  0.00000000E+00
  0.00000000E+00  0.00000000E+00  0.00000000E+00
  0.00000000E+00  0.00000000E+00  0.00000000E+00
  0.00000000E+00  0.00000000E+00  0.00000000E+00
  0.00000000E+00  0.00000000E+00  0.00000000E+00
  0.00000000E+00  0.00000000E+00  0.00000000E+00
  0.00000000E+00  0.00000000E+00  0.00000000E+00
  0.00000000E+00  0.00000000E+00  0.00000000E+00
  0.00000000E+00  0.00000000E+00  0.00000000E+00
  0.00000000E+00  0.00000000E+00  0.00000000E+00
  0.00000000E+00  0.00000000E+00  0.00000000E+00
  0.00000000E+00  0.00000000E+00  0.00000000E+00
  0.00000000E+00  0.00000000E+00  0.00000000E+00
  0.00000000E+00  0.00000000E+00  0.00000000E+00
  0.00000000E+00  0.00000000E+00  0.00000000E+00
  0.00000000E+00  0.00000000E+00  0.00000000E+00
  0.00000000E+00  0.00000000E+00  0.00000000E+00
  0.00000000E+00  0.00000000E+00  0.00000000E+00
  0.00000000E+00  0.00000000E+00  0.00000000E+00
  0.00000000E+00  0.00000000E+00  0.00000000E+00
  0.00000000E+00  0.00000000E+00  0.00000000E+00
  0.00000000E+00  0.00000000E+00  0.00000000E+00
  0.00000000E+00  0.00000000E+00  0.00000000E+00
  0.00000000E+00  0.00000000E+00  0.00000000E+00
  0.00000000E+00  0.00000000E+00  0.00000000E+00
  0.00000000E+00  0.00000000E+00  0.00000000E+00
  0.00000000E+00  0.00000000E+00  0.00000000E+00
  0.00000000E+00  0.00000000E+00  0.00000000E+00
  0.00000000E+00  0.00000000E+00  0.00000000E+00
  0.00000000E+00  0.00000000E+00  0.00000000E+00
  0.00000000E+00  0.00000000E+00  0.00000000E+00
  0.00000000E+00  0.00000000E+00  0.00000000E+00
  0.00000000E+00  0.00000000E+00  0.00000000E+00
  0.00000000E+00  0.00000000E+00  0.00000000E+00
  0.00000000E+00  0.00000000E+00  0.00000000E+00
  0.00000000E+00  0.00000000E+00  0.00000000E+00
  0.00000000E+00  0.00000000E+00  0.00000000E+00
  0.00000000E+00  0.00000000E+00  0.00000000E+00
  0.00000000E+00  0.00000000E+00  0.00000000E+00
  0.00000000E+00  0.00000000E+00  0.00000000E+00
  0.00000000E+00  0.00000000E+00  0.00000000E+00
  0.00000000E+00  0.00000000E+00  0.00000000E+00
  0.00000000E+00  0.00000000E+00  0.00000000E+00
  0.00000000E+00  0.00000000E+00  0.00000000E+00
  0.00000000E+00  0.00000000E+00  0.00000000E+00
  0.00000000E+00  0.00000000E+00  0.00000000E+00
  0.00000000E+00  0.00000000E+00  0.00000000E+00
  0.00000000E+00  0.00000000E+00  0.00000000E+00
  0.00000000E+00  0.00000000E+00  0.00000000E+00
  0.00000000E+00  0.00000000E+00  0.00000000E+00
  0.00000000E+00  0.00000000E+00  0.00000000E+00
  0.00000000E+00  0.00000000E+00  0.00000000E+00
  0.00000000E+00  0.00000000E+00  0.00000000E+00
  0.00000000E+00  0.00000000E+00  0.00000000E+00
  0.00000000E+00  0.00000000E+00  0.00000000E+00
  0.00000000E+00  0.00000000E+00  0.00000000E+00
  0.00000000E+00  0.00000000E+00  0.00000000E+00
  0.00000000E+00  0.00000000E+00  0.00000000E+00
  0.00000000E+00  0.00000000E+00  0.00000000E+00
  0.00000000E+00  0.00000000E+00  0.00000000E+00
  0.00000000E+00  0.00000000E+00  0.00000000E+00
  0.00000000E+00  0.00000000E+00  0.00000000E+00
  0.00000000E+00  0.00000000E+00  0.00000000E+00
  0.00000000E+00  0.00000000E+00  0.00000000E+00
  0.00000000E+00  0.00000000E+00  0.00000000E+00
  0.00000000E+00  0.00000000E+00  0.00000000E+00
  0.00000000E+00  0.00000000E+00  0.00000000E+00
  0.00000000E+00  0.00000000E+00  0.00000000E+00
  0.00000000E+00  0.00000000E+00  0.00000000E+00
  0.00000000E+00  0.00000000E+00  0.00000000E+00
  0.00000000E+00  0.00000000E+00  0.00000000E+00
  0.00000000E+00  0.00000000E+00  0.00000000E+00
  0.00000000E+00  0.00000000E+00  0.00000000E+00
  0.00000000E+00  0.00000000E+00  0.00000000E+00
  0.00000000E+00  0.00000000E+00  0.00000000E+00
  0.00000000E+00  0.00000000E+00  0.00000000E+00
  0.00000000E+00  0.00000000E+00  0.00000000E+00
  0.00000000E+00  0.00000000E+00  0.00000000E+00
  0.00000000E+00  0.00000000E+00  0.00000000E+00
  0.00000000E+00  0.00000000E+00  0.00000000E+00
  0.00000000E+00  0.00000000E+00  0.00000000E+00
  0.00000000E+00  0.00000000E+00  0.00000000E+00
  0.00000000E+00  0.00000000E+00  0.00000000E+00
  0.00000000E+00  0.00000000E+00  0.00000000E+00
  0.00000000E+00  0.00000000E+00  0.00000000E+00
  0.00000000E+00  0.00000000E+00  0.00000000E+00
  0.00000000E+00  0.00000000E+00  0.00000000E+00
  0.00000000E+00  0.00000000E+00  0.00000000E+00
  0.00000000E+00  0.00000000E+00  0.00000000E+00
  0.00000000E+00  0.00000000E+00  0.00000000E+00
  0.00000000E+00  0.00000000E+00  0.00000000E+00
  0.00000000E+00  0.00000000E+00  0.00000000E+00
  0.00000000E+00  0.00000000E+00  0.00000000E+00
  0.00000000E+00  0.00000000E+00  0.00000000E+00
  0.00000000E+00  0.00000000E+00  0.00000000E+00
  0.00000000E+00  0.00000000E+00  0.00000000E+00
  0.00000000E+00  0.00000000E+00  0.00000000E+00
  0.00000000E+00  0.00000000E+00  0.00000000E+00
  0.00000000E+00  0.00000000E+00  0.00000000E+00
  0.00000000E+00  0.00000000E+00  0.00000000E+00
  0.00000000E+00  0.00000000E+00  0.00000000E+00
  0.00000000E+00  0.00000000E+00  0.00000000E+00
  0.00000000E+00  0.00000000E+00  0.00000000E+00
  0.00000000E+00  0.00000000E+00  0.00000000E+00