O  Si Ru C  H                           
   1.00000000000000     
    20.3096463179999986    0.0000000000000000    0.0000000000000000
     0.0000000000000000   19.8625212309999988    0.0000000000000000
     0.0000000000000000    0.0000000000000000   13.3711533340000006
   O    Si   Ru   C    H 
   192    96     4     2     6
Selective dynamics
Direct
  0.5030220536605583  0.0548460080837927  0.7109887802891635   F   F   F
  0.9938937234032466  0.5688180200591404  0.2134782190210700   F   F   F
  0.5058955650494923  0.4361551033349755  0.7140707881736432   F   F   F
  0.9969307039116302  0.9367894329023798  0.2107948304528833   F   F   F
  0.4953357400336529  0.9427873401075075  0.2836217569912662   F   F   F
  0.0061286148488833  0.4303204966074503  0.7907560205082902   F   F   F
  0.4971288464350891  0.5619695792574504  0.2945430115865122   F   F   F
  0.0027336763590426  0.0605960334039324  0.7849659440604242   F   F   F
  0.3860707309831781  0.0662906780406587  0.7898480958366676   F   F   F
  0.1077539150632418  0.5608530279136374  0.3073098819657787   F   F   F
  0.3918975188133089  0.4397639100502175  0.8065639313683448   F   F   F
  0.1153399651850791  0.9333303343162953  0.2921384340133812   F   F   F
  0.6136736942054455  0.9351936845640694  0.2039010543115580   F   F   F
  0.8919510323498301  0.4400131231255600  0.6987714347902809   F   F   F
  0.6081384999081578  0.5581130110626233  0.1968021707709582   F   F   F
  0.8853585984933474  0.0660011881046572  0.7049175014718259   F   F   F
  0.4150776369024527  0.1337362950607783  0.6252669303208833   F   F   F
  0.0968294618471930  0.6338396651142801  0.1423808653159426   F   F   F
  0.4044304795559270  0.3699867662585774  0.6381446526608201   F   F   F
  0.0904503916853514  0.8621973241244589  0.1299422426340371   F   F   F
  0.5875962627963105  0.8640169621031788  0.3684364002048497   F   F   F
  0.9012953605093870  0.3677352897476212  0.8635664935977303   F   F   F
  0.6037163974160791  0.6265452656311226  0.3648096263894445   F   F   F
  0.9112861794937714  0.1385584422034327  0.8654264677808712   F   F   F
  0.4009464208533728  0.0003368152472802  0.6165758326199438   F   F   F
  0.0914122270240938  0.4995624616130598  0.1308653005683951   F   F   F
  0.4063482874483029  0.5049087114050650  0.6354762216654706   F   F   F
  0.0964051026424286  0.9966599304270218  0.1173163978799252   F   F   F
  0.5955672559965421  0.9980604564130644  0.3819186753620087   F   F   F
  0.9106313182622330  0.5015672423524649  0.8744907569242599   F   F   F
  0.5925021938631687  0.4944795217976221  0.3715289082332234   F   F   F
  0.9022200442634016  0.0052556268555222  0.8816217797775820   F   F   F
  0.3236762421694053  0.0390851690463307  0.9596187912506338   F   F   F
  0.1781984222569832  0.5366976578335354  0.4685227263910647   F   F   F
  0.3222847851466000  0.4629382087531226  0.9699888765033009   F   F   F
  0.1746430989196313  0.9637347974633244  0.4617672694331887   F   F   F
  0.6755814348100984  0.9644118074045522  0.0375629526828405   F   F   F
  0.8220866941046836  0.4623018343546761  0.5348730824748174   F   F   F
  0.6788020718894359  0.5351183707439588  0.0339731352003056   F   F   F
  0.8232920326722137  0.0363861159212746  0.5369559244933271   F   F   F
  0.3189476958123336  0.9534643430947938  0.8035130202272924   F   F   F
  0.1828027894660877  0.4530447013924714  0.3111309769682720   F   F   F
  0.3144278690189495  0.5475768608397686  0.8152610484654375   F   F   F
  0.1764619601880355  0.0486816345596068  0.3034076342303322   F   F   F
  0.6817395922709224  0.0470453870952525  0.1975805627239566   F   F   F
  0.8143617934568113  0.5462730473040622  0.6929215280510377   F   F   F
  0.6856145982049426  0.4519169492939596  0.1932069684244055   F   F   F
  0.8172559846741123  0.9535274892716359  0.6964560025140472   F   F   F
  0.2548606666484616  0.0697061558247256  0.7998965932731892   F   F   F
  0.2378793525204017  0.5736484308892074  0.3027764822593255   F   F   F
  0.2616160772475382  0.4264322691713787  0.8029658872207506   F   F   F
  0.2462080035168341  0.9378381895872820  0.3049405203445232   F   F   F
  0.7444368928571734  0.9307161857754380  0.1966823604746821   F   F   F
  0.7611811529331618  0.4255295640318124  0.7005932671626667   F   F   F
  0.7394294201317635  0.5723966191288810  0.1994353017565942   F   F   F
  0.7538742802443750  0.0693366156281598  0.6961344146979016   F   F   F
  0.2935905385371171  0.1295621019140114  0.0976774379423944   F   F   F
  0.2034725709481577  0.6215315040404050  0.6158453357568447   F   F   F
  0.2932370119474541  0.3796491851311856  0.1163758997545301   F   F   F
  0.1963900100688676  0.8753579942589695  0.6029105435776430   F   F   F
  0.7030201204117290  0.8755268174545066  0.8968799998356189   F   F   F
  0.7956780609063472  0.3771444678588196  0.3887121679162675   F   F   F
  0.7055657088080238  0.6216572335604909  0.8900533635896721   F   F   F
  0.7978386105935726  0.1240200058870329  0.3938605644891311   F   F   F
  0.2003195888445504  0.0480135421333898  0.0248258315276288   F   F   F
  0.3006976047577723  0.5489791414341170  0.5364190272263158   F   F   F
  0.1994170620494984  0.4574177615387569  0.0360342887381933   F   F   F
  0.2958838338126384  0.9463934928348934  0.5281542263813535   F   F   F
  0.7983851489146332  0.9529092394604888  0.9728091268630124   F   F   F
  0.6993691459516640  0.4515886928795680  0.4686903099124962   F   F   F
  0.8011720019751820  0.5438846294668593  0.9647963550905487   F   F   F
  0.7012190058365562  0.0479767894980370  0.4694404321906163   F   F   F
  0.2947092187762621  0.0008719940333108  0.1434678035680079   F   F   F
  0.2086501130373861  0.4909311303733759  0.6483419779471333   F   F   F
  0.2937495762647799  0.5108228649324005  0.1491165309524973   F   F   F
  0.2065870539695922  0.0049268669803766  0.6420672761391302   F   F   F
  0.7060344515842871  0.0056845754215615  0.8556015860583628   F   F   F
  0.7917636648230655  0.5083251961106470  0.3556349913293104   F   F   F
  0.7060477457596690  0.4907634779408738  0.8530730083691083   F   F   F
  0.7944052667082033  0.9936956024089980  0.3551952386876991   F   F   F
  0.1092682740631048  0.1304698416611600  0.0990797103965093   F   F   F
  0.3932180144345025  0.6356867682066039  0.6008783820273820   F   F   F
  0.1100097936230355  0.3689727962914304  0.0991275746296054   F   F   F
  0.3915472382378695  0.8672416696733052  0.6017576703958056   F   F   F
  0.8885014400278806  0.8715937820109474  0.8942108209616322   F   F   F
  0.6100509977379147  0.3639306367974129  0.4014410624064126   F   F   F
  0.8906688829912284  0.6323114701268793  0.9003060318955107   F   F   F
  0.6103917225290587  0.1306641775138502  0.3951140090934473   F   F   F
  0.0816242673084275  0.0546682864361259  0.9422814685672947   F   F   F
  0.4206422603905295  0.5475261736267285  0.4542430040570835   F   F   F
  0.0818886736853699  0.4509271454432096  0.9491297932938636   F   F   F
  0.4138898387421861  0.9422373084301299  0.4405847030404288   F   F   F
  0.9173365064209875  0.9437623644043427  0.0541546403599114   F   F   F
  0.5810460613260986  0.4445095311576139  0.5526524014356937   F   F   F
  0.9169691932790869  0.5537454118782179  0.0551216474442668   F   F   F
  0.5835138541775962  0.0581104476403809  0.5550007403721864   F   F   F
  0.1283921915316171  0.0780948189789257  0.7590953260696480   F   F   F
  0.3670908269564990  0.5799444781671568  0.2763806431547948   F   F   F
  0.1334543180891217  0.4191884757814748  0.7722632253227601   F   F   F
  0.3713671265634630  0.9226262041302107  0.2508429379460395   F   F   F
  0.8710284621904734  0.9196969401593051  0.2374828797995718   F   F   F
  0.6327392313380997  0.4162744449126379  0.7307267934139432   F   F   F
  0.8669579826407272  0.5819462627916394  0.2346947882214749   F   F   F
  0.6276239280790818  0.0791576246396204  0.7400977128006332   F   F   F
  0.0847300922308492  0.9567421057450787  0.8064218339166871   F   F   F
  0.4158900587310583  0.4599813837198354  0.3051486957093630   F   F   F
  0.0817608476246008  0.5397701233847201  0.7996024818347749   F   F   F
  0.4108151303750347  0.0425469652201542  0.3100263602137545   F   F   F
  0.9154265765584668  0.0409041727659414  0.1923768231315677   F   F   F
  0.5897269008249708  0.5390058321253477  0.6942628081037725   F   F   F
  0.9158175237899258  0.4612677259571996  0.2001547610103884   F   F   F
  0.5912619259146084  0.9570803420421683  0.6855169879578042   F   F   F
  0.2139648289270610  0.1395276041630922  0.6457341251218054   F   F   F
  0.2880974154665807  0.6445255877879035  0.1542280861960776   F   F   F
  0.2137151938560891  0.3567663902073122  0.6520776317648966   F   F   F
  0.2725239371232391  0.8691333756821891  0.1422346446164298   F   F   F
  0.7830200364398081  0.8598329386978918  0.3506780516888526   F   F   F
  0.7147194871205116  0.3564013811575748  0.8516034268371939   F   F   F
  0.7823617285702085  0.6421375137459222  0.3523061834929067   F   F   F
  0.7160882948074985  0.1398145767953025  0.8513633577930548   F   F   F
  0.4954818156198257  0.8676218526252768  0.7212081196800000   F   F   F
  0.0026253534485576  0.3615094940109245  0.2153509071411293   F   F   F
  0.5005883770936634  0.6347464143583537  0.7188167181533913   F   F   F
  0.0049602045462862  0.1378822944050881  0.2196310166103999   F   F   F
  0.5047109063103292  0.1338379941339483  0.2755401802649047   F   F   F
  0.0001458590041139  0.6436937091365280  0.7878140570805527   F   F   F
  0.5025922086567007  0.3611993621838323  0.2840921725383936   F   F   F
  0.9937878623770899  0.8619399219712278  0.7751186259786564   F   F   F
  0.3793136101410255  0.8353300316757810  0.7943044559465591   F   F   F
  0.1179055490433498  0.3365156881276476  0.2924295236415659   F   F   F
  0.3865491540480406  0.6602226544919034  0.7982250145863077   F   F   F
  0.1223059210931936  0.1691044133288457  0.2894163205921672   F   F   F
  0.6206459631366599  0.1652932153887861  0.2030640089285214   F   F   F
  0.8855860766053567  0.6593750031873782  0.7048546796658854   F   F   F
  0.6177404472514425  0.3364180167405451  0.2067076736732929   F   F   F
  0.8765795189757455  0.8347872763565150  0.7028256849096124   F   F   F
  0.4396363245940762  0.7501897058563145  0.6737283742880606   F   F   F
  0.0665279926023388  0.2504470576593363  0.1588726078399176   F   F   F
  0.5645553753360062  0.2479574442097174  0.3337984307345323   F   F   F
  0.9287532488087891  0.7515007700383691  0.8359024626229754   F   F   F
  0.3101411365645532  0.8677211805260896  0.9526887608456107   F   F   F
  0.1821164161151287  0.3653896660748615  0.4597441855945732   F   F   F
  0.3170261321809136  0.6387692899182156  0.9624652070162156   F   F   F
  0.1877048935422039  0.1344703408463275  0.4526124148626138   F   F   F
  0.6906225633072083  0.1294402644105119  0.0444075380161948   F   F   F
  0.8137266272999000  0.6328995122925321  0.5441422903661675   F   F   F
  0.6845525413053650  0.3659948259062986  0.0436903223983336   F   F   F
  0.8055004870026181  0.8708038520812309  0.5442724212499144   F   F   F
  0.2487453448110912  0.8424345490274874  0.7800147508241722   F   F   F
  0.2482775879524297  0.3384751573988112  0.2940509245378493   F   F   F
  0.2563469349272651  0.6653189654570681  0.7882754329225747   F   F   F
  0.2529394121180317  0.1562873093449539  0.2840876852665346   F   F   F
  0.7510623159636651  0.1596116607317697  0.2145035606395211   F   F   F
  0.7555247274986030  0.6639333368927041  0.7158125975313112   F   F   F
  0.7479632959701874  0.3360897603261606  0.2121739186690874   F   F   F
  0.7462724738129509  0.8417128825471991  0.7148500777188076   F   F   F
  0.2814031635618690  0.7534839081895015  0.0458623301877097   F   F   F
  0.2172356884467135  0.2496284304663945  0.5393513797842715   F   F   F
  0.7093043263502068  0.2481663804243937  0.9622034598380580   F   F   F
  0.7942974361745883  0.7513230483907023  0.4609019017326901   F   F   F
  0.1872908836988572  0.8403184872554021  0.9986733824859400   F   F   F
  0.3062948464290400  0.3465411022069631  0.5118571172612931   F   F   F
  0.1945872214776116  0.6565694565629698  0.0144627931146601   F   F   F
  0.3096695974673835  0.1561121050010783  0.5118616045331521   F   F   F
  0.8101111039741724  0.1637913919468801  0.9860503182230573   F   F   F
  0.6929126081101487  0.6696607064787159  0.4925932591956652   F   F   F
  0.8062449608237472  0.3366667263551264  0.9914791692867411   F   F   F
  0.6886161275789888  0.8290513479376145  0.4814064904657229   F   F   F
  0.0967164374418701  0.7459074118066127  0.0376782262583717   F   F   F
  0.3982723220950959  0.2530474324757677  0.5471786776534771   F   F   F
  0.9072570596007594  0.2532976524726251  0.9619252489831638   F   F   F
  0.5884085052493973  0.7454670381213973  0.4489823105786357   F   F   F
  0.0657378579192098  0.8566654086756458  0.9352903197951221   F   F   F
  0.4262127397230060  0.3634991709275823  0.4426364616543879   F   F   F
  0.0756937038973291  0.6289513530428934  0.9464572524840023   F   F   F
  0.4266627721783678  0.1492972601772138  0.4291522097356264   F   F   F
  0.9275134438606543  0.1402384907537595  0.0619415527824358   F   F   F
  0.5754198515051456  0.6340060780376433  0.5609638384494957   F   F   F
  0.9239732541953956  0.3686364845049113  0.0587615727958237   F   F   F
  0.5734861661434252  0.8526713353269386  0.5656770043885828   F   F   F
  0.1206496335002001  0.8340956131116357  0.7558203898249118   F   F   F
  0.3761261954241775  0.3373584814369863  0.2606992764892055   F   F   F
  0.1277041050309577  0.6622849282439063  0.7684068323797675   F   F   F
  0.3796905115558573  0.1625825826662890  0.2423321249155634   F   F   F
  0.8790911333683056  0.1628041053999283  0.2461253653887709   F   F   F
  0.6264277382359751  0.6620860600512799  0.7403656667701810   F   F   F
  0.8764145727257002  0.3378251895598936  0.2408057046068421   F   F   F
  0.6195752724277455  0.8354686549454655  0.7529812203810309   F   F   F
  0.1977311073471384  0.7497214107888013  0.6626124682553822   F   F   F
  0.2990253943820562  0.2525198056011106  0.1641945122577724   F   F   F
  0.8025984177554690  0.2501127597158472  0.3381667898835872   F   F   F
  0.6993031674516459  0.7493781794815320  0.8405363186900061   F   F   F
  0.4257883108646681  0.0631198821851129  0.6841960279325576   F   F   F
  0.0725340564494275  0.5653924884753465  0.1969248224251317   F   F   F
  0.4269724772269683  0.4376705202173525  0.6970707587579312   F   F   F
  0.0744992439544774  0.9325862180477671  0.1856007755493820   F   F   F
  0.5732556538061644  0.9356665309504280  0.3106611554758842   F   F   F
  0.9273967505434513  0.4352513912738942  0.8077979311279648   F   F   F
  0.5737183983506284  0.5598004796419502  0.3069669503696915   F   F   F
  0.9252288152032406  0.0671304505854451  0.8103093076084562   F   F   F
  0.3209780169447072  0.0321505005619969  0.8387429057060274   F   F   F
  0.1768658124926574  0.5309383055792551  0.3483659633179172   F   F   F
  0.3225654399601154  0.4691972328998659  0.8493126745561526   F   F   F
  0.1779635391598049  0.9707643152031196  0.3401971597098878   F   F   F
  0.6787287077364255  0.9693754270202817  0.1584336030769506   F   F   F
  0.8223727650637258  0.4684697321041753  0.6557601861990605   F   F   F
  0.6780610447063751  0.5294745756438175  0.1547966692399640   F   F   F
  0.8199798134958343  0.0313263353007187  0.6578190961010222   F   F   F
  0.2775114796068507  0.0546209611248543  0.0561245527034515   F   F   F
  0.2235395021009126  0.5500229641879741  0.5681771486657254   F   F   F
  0.2767113671998871  0.4527763568083145  0.0687973562954269   F   F   F
  0.2196465503255638  0.9477945161039258  0.5594369041552696   F   F   F
  0.7212533281299685  0.9495808603876057  0.9401380483787634   F   F   F
  0.7767914690871649  0.4496715143121008  0.4363647513609479   F   F   F
  0.7234754249254181  0.5479732342847186  0.9349903996845441   F   F   F
  0.7786605316698285  0.0505867300688791  0.4383212018889253   F   F   F
  0.1220941990408946  0.0576387049098912  0.0466631400010513   F   F   F
  0.3789391947318137  0.5589376017908521  0.5558476432454071   F   F   F
  0.1213009799100533  0.4443106641581025  0.0539841240294905   F   F   F
  0.3758574481271424  0.9381635140855167  0.5470156922091149   F   F   F
  0.8764204812480898  0.9433072358788692  0.9500100464557306   F   F   F
  0.6213515391853832  0.4387363466425995  0.4483726908400172   F   F   F
  0.8793826204728674  0.5578345201568453  0.9484918528120758   F   F   F
  0.6230221738911155  0.0586622406314419  0.4496777390706441   F   F   F
  0.0744902188995340  0.0371559074206615  0.8240358722072827   F   F   F
  0.4242903104992664  0.5386720705002901  0.3340757134943715   F   F   F
  0.0759048176350419  0.4604813202527893  0.8289217633767336   F   F   F
  0.4230619173180372  0.9620612753890327  0.3235757816088309   F   F   F
  0.9251076904942508  0.9607687653577486  0.1724503445889525   F   F   F
  0.5770858741942959  0.4591426180965712  0.6719831697055341   F   F   F
  0.9234528118482217  0.5409479428639017  0.1747104338456609   F   F   F
  0.5761282011902722  0.0369550265781129  0.6718881891179720   F   F   F
  0.2010404285761140  0.0720125095583342  0.7103396216277389   F   F   F
  0.2969279947112327  0.5763899705637101  0.2206927946368396   F   F   F
  0.2044718029540249  0.4243851977282773  0.7181953388853444   F   F   F
  0.2954065881371761  0.9327402610725102  0.2089382054989244   F   F   F
  0.7983639767094033  0.9268939116986985  0.2860306739789564   F   F   F
  0.7036986157328329  0.4233113159308957  0.7848739549874324   F   F   F
  0.7951861764173955  0.5751117829981993  0.2862378363628437   F   F   F
  0.7008541545789839  0.0726941954250222  0.7868737824766612   F   F   F
  0.4262289723762791  0.8298137254192639  0.6959127859555565   F   F   F
  0.0742322134218441  0.3291228703532951  0.1909259385657123   F   F   F
  0.4298334202540133  0.6716642133497714  0.6997823010424398   F   F   F
  0.0753243053102395  0.1719640704357843  0.1909521143181863   F   F   F
  0.5745683512793534  0.1696551993983846  0.3025228937966205   F   F   F
  0.9264686201513825  0.6719378594883452  0.8081030656139774   F   F   F
  0.5735215580626161  0.3272424444211808  0.3071574977422955   F   F   F
  0.9223548114374438  0.8298810512672290  0.8026652400065899   F   F   F
  0.3146076905943502  0.8745992811403127  0.8319299530328479   F   F   F
  0.1823690054472991  0.3734490658931620  0.3387434043167161   F   F   F
  0.3183878652725269  0.6275265010873454  0.8401754118876354   F   F   F
  0.1851105598361897  0.1275477554201956  0.3319466832164579   F   F   F
  0.6860592145147777  0.1257705389435202  0.1653776562697189   F   F   F
  0.8176341301070593  0.6257443279960810  0.6649875128864480   F   F   F
  0.6837238710401863  0.3725206842549227  0.1646724067101317   F   F   F
  0.8114213188141264  0.8748320416081015  0.6650981989254916   F   F   F
  0.2626135532754148  0.8319201467019539  0.0349624116760054   F   F   F
  0.2302590565476947  0.3295437635472069  0.5410453249088434   F   F   F
  0.2694226532195856  0.6738237738189241  0.0427747242406369   F   F   F
  0.2327096162088864  0.1702120269970280  0.5377307267666396   F   F   F
  0.7322185609318126  0.1704461362496232  0.9604534238153235   F   F   F
  0.7705146488016723  0.6736828544764890  0.4619504275890449   F   F   F
  0.7292672539980742  0.3267691913084079  0.9617143472060619   F   F   F
  0.7672319722372407  0.8278415317355012  0.4589304936318683   F   F   F
  0.1097028567698572  0.8258574690834735  0.0265057202669396   F   F   F
  0.3838126906765140  0.3328167619366837  0.5348648558097508   F   F   F
  0.1155467953768792  0.6673372357251992  0.0351192713512418   F   F   F
  0.3871662695096276  0.1732932068376059  0.5284271164577490   F   F   F
  0.8885910526174641  0.1741792977721488  0.9687623555301030   F   F   F
  0.6152648573031598  0.6691321287820173  0.4666147460700429   F   F   F
  0.8845683336237045  0.3313365873073835  0.9688595797535839   F   F   F
  0.6093090363527693  0.8239489424236766  0.4662447779928414   F   F   F
  0.0666185526893628  0.8777188479166611  0.8190932816812051   F   F   F
  0.4296190028807558  0.3807905306701684  0.3235771733316639   F   F   F
  0.0720004535505439  0.6188768980305852  0.8256734363848039   F   F   F
  0.4298386029629171  0.1219447406414673  0.3147387435382143   F   F   F
  0.9313303493244973  0.1204252960730301  0.1797556231659030   F   F   F
  0.5738507876846128  0.6177583559758801  0.6777445371141653   F   F   F
  0.9294278051149689  0.3821825996667698  0.1786128646006304   F   F   F
  0.5704736739381673  0.8784403031710468  0.6812691710381671   F   F   F
  0.1914906531621412  0.8256962432728159  0.7021652230769391   F   F   F
  0.3043878708277177  0.3283027327780843  0.2088099605364988   F   F   F
  0.1958989812458114  0.6729012179117149  0.7095378643964452   F   F   F
  0.3062584105409698  0.1744275039259762  0.1973711567041434   F   F   F
  0.8075901344211687  0.1731064228962893  0.2981672485844840   F   F   F
  0.6967236050516021  0.6731214957310243  0.7969701441462789   F   F   F
  0.8056989148795495  0.3264429487370535  0.2949566055735460   F   F   F
  0.6921282517628953  0.8264514765819371  0.8014147869168369   F   F   F
  0.3093651888669413  0.7647075533849943  0.3599124390153179   F   F   F
  0.3973075473671841  0.8096140609368163  0.2683061587610496   F   F   F
  0.3811573730793043  0.7083021135019720  0.4579109430152215   F   F   F
  0.4669843085300940  0.7499920274549368  0.3571617454825642   F   F   F
  0.4795719217530490  0.6912409287391839  0.2282297239875746   T   T   T
  0.4352536798794588  0.7651732218416640  0.1379047321506590   T   T   T
  0.4409386959057642  0.6566220520605484  0.2384231381237996   T   T   T
  0.5074685414567597  0.6818326956963787  0.1579727957026620   T   T   T
  0.5223321810825041  0.6854288073793811  0.2872434250813924   T   T   T
  0.4184239497430724  0.7206968774513598  0.0931134449741933   T   T   T
  0.3944417607692259  0.8038899807888313  0.1224959077485579   T   T   T
  0.4821462127035332  0.7857964865109894  0.1073054554280408   T   T   T
 
  0.00000000E+00  0.00000000E+00  0.00000000E+00
  0.00000000E+00  0.00000000E+00  0.00000000E+00
  0.00000000E+00  0.00000000E+00  0.00000000E+00
  0.00000000E+00  0.00000000E+00  0.00000000E+00
  0.00000000E+00  0.00000000E+00  0.00000000E+00
  0.00000000E+00  0.00000000E+00  0.00000000E+00
  0.00000000E+00  0.00000000E+00  0.00000000E+00
  0.00000000E+00  0.00000000E+00  0.00000000E+00
  0.00000000E+00  0.00000000E+00  0.00000000E+00
  0.00000000E+00  0.00000000E+00  0.00000000E+00
  0.00000000E+00  0.00000000E+00  0.00000000E+00
  0.00000000E+00  0.00000000E+00  0.00000000E+00
  0.00000000E+00  0.00000000E+00  0.00000000E+00
  0.00000000E+00  0.00000000E+00  0.00000000E+00
  0.00000000E+00  0.00000000E+00  0.00000000E+00
  0.00000000E+00  0.00000000E+00  0.00000000E+00
  0.00000000E+00  0.00000000E+00  0.00000000E+00
  0.00000000E+00  0.00000000E+00  0.00000000E+00
  0.00000000E+00  0.00000000E+00  0.00000000E+00
  0.00000000E+00  0.00000000E+00  0.00000000E+00
  0.00000000E+00  0.00000000E+00  0.00000000E+00
  0.00000000E+00  0.00000000E+00  0.00000000E+00
  0.00000000E+00  0.00000000E+00  0.00000000E+00
  0.00000000E+00  0.00000000E+00  0.00000000E+00
  0.00000000E+00  0.00000000E+00  0.00000000E+00
  0.00000000E+00  0.00000000E+00  0.00000000E+00
  0.00000000E+00  0.00000000E+00  0.00000000E+00
  0.00000000E+00  0.00000000E+00  0.00000000E+00
  0.00000000E+00  0.00000000E+00  0.00000000E+00
  0.00000000E+00  0.00000000E+00  0.00000000E+00
  0.00000000E+00  0.00000000E+00  0.00000000E+00
  0.00000000E+00  0.00000000E+00  0.00000000E+00
  0.00000000E+00  0.00000000E+00  0.00000000E+00
  0.00000000E+00  0.00000000E+00  0.00000000E+00
  0.00000000E+00  0.00000000E+00  0.00000000E+00
  0.00000000E+00  0.00000000E+00  0.00000000E+00
  0.00000000E+00  0.00000000E+00  0.00000000E+00
  0.00000000E+00  0.00000000E+00  0.00000000E+00
  0.00000000E+00  0.00000000E+00  0.00000000E+00
  0.00000000E+00  0.00000000E+00  0.00000000E+00
  0.00000000E+00  0.00000000E+00  0.00000000E+00
  0.00000000E+00  0.00000000E+00  0.00000000E+00
  0.00000000E+00  0.00000000E+00  0.00000000E+00
  0.00000000E+00  0.00000000E+00  0.00000000E+00
  0.00000000E+00  0.00000000E+00  0.00000000E+00
  0.00000000E+00  0.00000000E+00  0.00000000E+00
  0.00000000E+00  0.00000000E+00  0.00000000E+00
  0.00000000E+00  0.00000000E+00  0.00000000E+00
  0.00000000E+00  0.00000000E+00  0.00000000E+00
  0.00000000E+00  0.00000000E+00  0.00000000E+00
  0.00000000E+00  0.00000000E+00  0.00000000E+00
  0.00000000E+00  0.00000000E+00  0.00000000E+00
  0.00000000E+00  0.00000000E+00  0.00000000E+00
  0.00000000E+00  0.00000000E+00  0.00000000E+00
  0.00000000E+00  0.00000000E+00  0.00000000E+00
  0.00000000E+00  0.00000000E+00  0.00000000E+00
  0.00000000E+00  0.00000000E+00  0.00000000E+00
  0.00000000E+00  0.00000000E+00  0.00000000E+00
  0.00000000E+00  0.00000000E+00  0.00000000E+00
  0.00000000E+00  0.00000000E+00  0.00000000E+00
  0.00000000E+00  0.00000000E+00  0.00000000E+00
  0.00000000E+00  0.00000000E+00  0.00000000E+00
  0.00000000E+00  0.00000000E+00  0.00000000E+00
  0.00000000E+00  0.00000000E+00  0.00000000E+00
  0.00000000E+00  0.00000000E+00  0.00000000E+00
  0.00000000E+00  0.00000000E+00  0.00000000E+00
  0.00000000E+00  0.00000000E+00  0.00000000E+00
  0.00000000E+00  0.00000000E+00  0.00000000E+00
  0.00000000E+00  0.00000000E+00  0.00000000E+00
  0.00000000E+00  0.00000000E+00  0.00000000E+00
  0.00000000E+00  0.00000000E+00  0.00000000E+00
  0.00000000E+00  0.00000000E+00  0.00000000E+00
  0.00000000E+00  0.00000000E+00  0.00000000E+00
  0.00000000E+00  0.00000000E+00  0.00000000E+00
  0.00000000E+00  0.00000000E+00  0.00000000E+00
  0.00000000E+00  0.00000000E+00  0.00000000E+00
  0.00000000E+00  0.00000000E+00  0.00000000E+00
  0.00000000E+00  0.00000000E+00  0.00000000E+00
  0.00000000E+00  0.00000000E+00  0.00000000E+00
  0.00000000E+00  0.00000000E+00  0.00000000E+00
  0.00000000E+00  0.00000000E+00  0.00000000E+00
  0.00000000E+00  0.00000000E+00  0.00000000E+00
  0.00000000E+00  0.00000000E+00  0.00000000E+00
  0.00000000E+00  0.00000000E+00  0.00000000E+00
  0.00000000E+00  0.00000000E+00  0.00000000E+00
  0.00000000E+00  0.00000000E+00  0.00000000E+00
  0.00000000E+00  0.00000000E+00  0.00000000E+00
  0.00000000E+00  0.00000000E+00  0.00000000E+00
  0.00000000E+00  0.00000000E+00  0.00000000E+00
  0.00000000E+00  0.00000000E+00  0.00000000E+00
  0.00000000E+00  0.00000000E+00  0.00000000E+00
  0.00000000E+00  0.00000000E+00  0.00000000E+00
  0.00000000E+00  0.00000000E+00  0.00000000E+00
  0.00000000E+00  0.00000000E+00  0.00000000E+00
  0.00000000E+00  0.00000000E+00  0.00000000E+00
  0.00000000E+00  0.00000000E+00  0.00000000E+00
  0.00000000E+00  0.00000000E+00  0.00000000E+00
  0.00000000E+00  0.00000000E+00  0.00000000E+00
  0.00000000E+00  0.00000000E+00  0.00000000E+00
  0.00000000E+00  0.00000000E+00  0.00000000E+00
  0.00000000E+00  0.00000000E+00  0.00000000E+00
  0.00000000E+00  0.00000000E+00  0.00000000E+00
  0.00000000E+00  0.00000000E+00  0.00000000E+00
  0.00000000E+00  0.00000000E+00  0.00000000E+00
  0.00000000E+00  0.00000000E+00  0.00000000E+00
  0.00000000E+00  0.00000000E+00  0.00000000E+00
  0.00000000E+00  0.00000000E+00  0.00000000E+00
  0.00000000E+00  0.00000000E+00  0.00000000E+00
  0.00000000E+00  0.00000000E+00  0.00000000E+00
  0.00000000E+00  0.00000000E+00  0.00000000E+00
  0.00000000E+00  0.00000000E+00  0.00000000E+00
  0.00000000E+00  0.00000000E+00  0.00000000E+00
  0.00000000E+00  0.00000000E+00  0.00000000E+00
  0.00000000E+00  0.00000000E+00  0.00000000E+00
  0.00000000E+00  0.00000000E+00  0.00000000E+00
  0.00000000E+00  0.00000000E+00  0.00000000E+00
  0.00000000E+00  0.00000000E+00  0.00000000E+00
  0.00000000E+00  0.00000000E+00  0.00000000E+00
  0.00000000E+00  0.00000000E+00  0.00000000E+00
  0.00000000E+00  0.00000000E+00  0.00000000E+00
  0.00000000E+00  0.00000000E+00  0.00000000E+00
  0.00000000E+00  0.00000000E+00  0.00000000E+00
  0.00000000E+00  0.00000000E+00  0.00000000E+00
  0.00000000E+00  0.00000000E+00  0.00000000E+00
  0.00000000E+00  0.00000000E+00  0.00000000E+00
  0.00000000E+00  0.00000000E+00  0.00000000E+00
  0.00000000E+00  0.00000000E+00  0.00000000E+00
  0.00000000E+00  0.00000000E+00  0.00000000E+00
  0.00000000E+00  0.00000000E+00  0.00000000E+00
  0.00000000E+00  0.00000000E+00  0.00000000E+00
  0.00000000E+00  0.00000000E+00  0.00000000E+00
  0.00000000E+00  0.00000000E+00  0.00000000E+00
  0.00000000E+00  0.00000000E+00  0.00000000E+00
  0.00000000E+00  0.00000000E+00  0.00000000E+00
  0.00000000E+00  0.00000000E+00  0.00000000E+00
  0.00000000E+00  0.00000000E+00  0.00000000E+00
  0.00000000E+00  0.00000000E+00  0.00000000E+00
  0.00000000E+00  0.00000000E+00  0.00000000E+00
  0.00000000E+00  0.00000000E+00  0.00000000E+00
  0.00000000E+00  0.00000000E+00  0.00000000E+00
  0.00000000E+00  0.00000000E+00  0.00000000E+00
  0.00000000E+00  0.00000000E+00  0.00000000E+00
  0.00000000E+00  0.00000000E+00  0.00000000E+00
  0.00000000E+00  0.00000000E+00  0.00000000E+00
  0.00000000E+00  0.00000000E+00  0.00000000E+00
  0.00000000E+00  0.00000000E+00  0.00000000E+00
  0.00000000E+00  0.00000000E+00  0.00000000E+00
  0.00000000E+00  0.00000000E+00  0.00000000E+00
  0.00000000E+00  0.00000000E+00  0.00000000E+00
  0.00000000E+00  0.00000000E+00  0.00000000E+00
  0.00000000E+00  0.00000000E+00  0.00000000E+00
  0.00000000E+00  0.00000000E+00  0.00000000E+00
  0.00000000E+00  0.00000000E+00  0.00000000E+00
  0.00000000E+00  0.00000000E+00  0.00000000E+00
  0.00000000E+00  0.00000000E+00  0.00000000E+00
  0.00000000E+00  0.00000000E+00  0.00000000E+00
  0.00000000E+00  0.00000000E+00  0.00000000E+00
  0.00000000E+00  0.00000000E+00  0.00000000E+00