O  Si Ru C  H                           
   1.00000000000000     
    20.3096463179830877    0.0000000000000000    0.0000000000000000
     0.0000000000000000   19.8625212307842212    0.0000000000000000
     0.0000000000000000    0.0000000000000000   13.3711533343531652
   O    Si   Ru   C    H 
   192    96     4     2     6
Selective dynamics
Direct
  0.5032021230444670  0.0548072763205241  0.7110322731914138   F   F   F
  0.9939642461340199  0.5688772869931924  0.2134758439156244   F   F   F
  0.5061256570083543  0.4359936395181592  0.7144910237251452   F   F   F
  0.9967627539687598  0.9368353148939832  0.2106849711574412   F   F   F
  0.4955445306462920  0.9430783503788831  0.2842726245659861   F   F   F
  0.0061620498819508  0.4303472919447628  0.7908638841814337   F   F   F
  0.4956337258769707  0.5647801261446048  0.2936283839518055   F   F   F
  0.0027242562519163  0.0605079489228615  0.7847757827018853   F   F   F
  0.3861314817840551  0.0665629632416156  0.7900184197463602   F   F   F
  0.1075024554558723  0.5609802296028974  0.3066864946238397   F   F   F
  0.3918371838465333  0.4395036574192801  0.8071611106195178   F   F   F
  0.1146413685467564  0.9332354908163367  0.2916841329084150   F   F   F
  0.6132403530285302  0.9349507979241736  0.2054742893066077   F   F   F
  0.8919946986079381  0.4399665924161980  0.6987241582330199   F   F   F
  0.6084220844507442  0.5576554406668635  0.1971384276239121   F   F   F
  0.8853058745392772  0.0659642408648153  0.7049767711907720   F   F   F
  0.4152745280700287  0.1339010026686580  0.6254090502103864   F   F   F
  0.0976623753506942  0.6334742684900476  0.1419573711941666   F   F   F
  0.4045100691580643  0.3697889295177532  0.6382031808946209   F   F   F
  0.0910036091952762  0.8626994524973455  0.1295443036893928   F   F   F
  0.5871229791261285  0.8647107101900886  0.3678517089967954   F   F   F
  0.9012512821386167  0.3677719981458338  0.8635673923148701   F   F   F
  0.6025943718303353  0.6273380708096923  0.3642852449305565   F   F   F
  0.9113733930734895  0.1385269384669883  0.8654338080817183   F   F   F
  0.4005953496189321  0.0006020291055293  0.6172887822931443   F   F   F
  0.0913676775505010  0.4995947485960599  0.1311015333524068   F   F   F
  0.4064501539982075  0.5043092656845474  0.6365267368229794   F   F   F
  0.0962620207752920  0.9968690219420253  0.1175670890775962   F   F   F
  0.5959532390046576  0.9974641577880021  0.3815264736814328   F   F   F
  0.9105765698966337  0.5017555955602333  0.8744977427196829   F   F   F
  0.5931264018080924  0.4940810157535012  0.3718825683897578   F   F   F
  0.9022125525088214  0.0051451860372893  0.8817940318626967   F   F   F
  0.3237198750990657  0.0392811563539510  0.9592289392073923   F   F   F
  0.1779792008307339  0.5365889456044854  0.4693009600477325   F   F   F
  0.3222869468071181  0.4628948624697813  0.9703484838999117   F   F   F
  0.1749306520426472  0.9640305245490168  0.4614119495374496   F   F   F
  0.6756253881972754  0.9643850417170583  0.0374463499993993   F   F   F
  0.8222742125854694  0.4623373537688309  0.5347899563504797   F   F   F
  0.6788272211640916  0.5349204370880400  0.0340592324838980   F   F   F
  0.8233893344679686  0.0363806795076513  0.5370064138141117   F   F   F
  0.3189358473241413  0.9537961446998935  0.8028590961669053   F   F   F
  0.1828449112782451  0.4531399269808460  0.3112035998913143   F   F   F
  0.3145696704959136  0.5473788915989104  0.8142270394042583   F   F   F
  0.1762331090079599  0.0487948617642004  0.3035169390966459   F   F   F
  0.6818223289627809  0.0469890003541380  0.1975038134711369   F   F   F
  0.8144384223720564  0.5463418756439680  0.6929410473391968   F   F   F
  0.6861996319257884  0.4516284385559786  0.1932924933156173   F   F   F
  0.8171967008619774  0.9534116291988397  0.6965137918458311   F   F   F
  0.2547581832273877  0.0698182465162631  0.7996882480637950   F   F   F
  0.2383970476099364  0.5731730641570678  0.3034017050826776   F   F   F
  0.2616011980303199  0.4264602812834255  0.8030731572221228   F   F   F
  0.2462581028062587  0.9374297092210213  0.3030588002046528   F   F   F
  0.7445588491183486  0.9307001435178748  0.1966186138748540   F   F   F
  0.7612655548865561  0.4255103541041692  0.7004164057556608   F   F   F
  0.7395184953703549  0.5722997399247092  0.1994012531398539   F   F   F
  0.7538363608586494  0.0693836837477804  0.6961309279920513   F   F   F
  0.2935027894592039  0.1302025359777943  0.0973722287694514   F   F   F
  0.2051492370225674  0.6217245126493864  0.6154807457951961   F   F   F
  0.2932436332948853  0.3795979873861413  0.1163947403263847   F   F   F
  0.1970024284800616  0.8748679236557066  0.6027278940744765   F   F   F
  0.7030032489516600  0.8754618987384077  0.8968788812357147   F   F   F
  0.7957045407414185  0.3772030511240203  0.3886299013076524   F   F   F
  0.7054353287142021  0.6215266144409952  0.8900352999267227   F   F   F
  0.7978942982318102  0.1239340625149268  0.3939077394421702   F   F   F
  0.1998453522641910  0.0484362110212828  0.0238854111119551   F   F   F
  0.3008865606318736  0.5475563041870757  0.5352480657404399   F   F   F
  0.1993754758313102  0.4573303280515546  0.0359591753350443   F   F   F
  0.2969712117099093  0.9468822086838031  0.5281881760177569   F   F   F
  0.7983364230356997  0.9529112236080763  0.9727188238750912   F   F   F
  0.6996229120986399  0.4513509685566319  0.4693047891036883   F   F   F
  0.8011169696304847  0.5440061723753757  0.9648140867629635   F   F   F
  0.7013099872388011  0.0481231914679867  0.4697783278440184   F   F   F
  0.2937694008870650  0.0017325991389825  0.1430892855050487   F   F   F
  0.2087473770576622  0.4907758304797483  0.6482548005159146   F   F   F
  0.2937248795473693  0.5107466138695642  0.1493838617755969   F   F   F
  0.2065018085750907  0.0049222476133082  0.6421761944668631   F   F   F
  0.7060304815521050  0.0055180999441831  0.8556316479640600   F   F   F
  0.7917381699678927  0.5083970385272210  0.3556121640603394   F   F   F
  0.7061643845390435  0.4909566978460518  0.8533234946728570   F   F   F
  0.7944295981380165  0.9935928237987284  0.3551782431745423   F   F   F
  0.1092268675742929  0.1305565206095736  0.0991435796837479   F   F   F
  0.3912518789138630  0.6341937140076439  0.6035692662512986   F   F   F
  0.1099560957307446  0.3690314947290787  0.0991530637711691   F   F   F
  0.3911667766702465  0.8672589505030146  0.6014517077567234   F   F   F
  0.8884123346749320  0.8715453520673577  0.8941529634244958   F   F   F
  0.6101721068551882  0.3635562958469478  0.4017327585469772   F   F   F
  0.8906890077483496  0.6323896164956224  0.9003039313929975   F   F   F
  0.6104909003175152  0.1306963760632911  0.3952156738766064   F   F   F
  0.0812032260263393  0.0547930234529019  0.9421876993779392   F   F   F
  0.4211155315748485  0.5480916366492821  0.4535801758032108   F   F   F
  0.0819455714355612  0.4509266440389368  0.9492833362838695   F   F   F
  0.4146021932039048  0.9449713582387105  0.4419152574857819   F   F   F
  0.9172757108133140  0.9437364604757903  0.0541539658333292   F   F   F
  0.5811019089749649  0.4442590975447303  0.5528838858800071   F   F   F
  0.9169883087663280  0.5537003718317592  0.0550975549055508   F   F   F
  0.5835217817677218  0.0581092150033555  0.5551133792835756   F   F   F
  0.1283724882369626  0.0780289325532664  0.7591540113947772   F   F   F
  0.3677221789895668  0.5803590792852589  0.2757000000473937   F   F   F
  0.1333228075059978  0.4192014062543237  0.7723094292378860   F   F   F
  0.3710344258094764  0.9240442869298562  0.2508066900521300   F   F   F
  0.8710619388512626  0.9196998337171181  0.2375433855520441   F   F   F
  0.6328776287806619  0.4162245376305052  0.7309308627334943   F   F   F
  0.8670044483825734  0.5819642652555075  0.2347297994048247   F   F   F
  0.6275883520987051  0.0791822693663562  0.7400596396019807   F   F   F
  0.0846776008457013  0.9567624248654525  0.8057648919635554   F   F   F
  0.4152201346185720  0.4594807093050477  0.3058438598556634   F   F   F
  0.0817950803555689  0.5397667006601736  0.7991496643494926   F   F   F
  0.4106134888510411  0.0437963391343104  0.3100297211855150   F   F   F
  0.9153841998925927  0.0407911859576728  0.1923204868815347   F   F   F
  0.5897293626149107  0.5387909061929435  0.6942509578942833   F   F   F
  0.9157830468941057  0.4613785202289904  0.2001312063415028   F   F   F
  0.5910149061006038  0.9567444284606026  0.6857430897800256   F   F   F
  0.2138402388682223  0.1395482708336786  0.6457672292857950   F   F   F
  0.2869649130173286  0.6441316122439034  0.1543927326829007   F   F   F
  0.2136735689287690  0.3566324548105939  0.6522606792293857   F   F   F
  0.2755703430466383  0.8683022999562553  0.1427026352644418   F   F   F
  0.7830142017346589  0.8597821320611629  0.3506883364082114   F   F   F
  0.7148362849898788  0.3563055304103955  0.8515491369754926   F   F   F
  0.7823103529886097  0.6420970560182084  0.3522863963296317   F   F   F
  0.7161243297361466  0.1397059119789290  0.8513091210017052   F   F   F
  0.4957094313903383  0.8669190419034791  0.7211008447633773   F   F   F
  0.0025859128270511  0.3615722589527977  0.2154511041075295   F   F   F
  0.5000713915173449  0.6347305245992629  0.7178182165835167   F   F   F
  0.0049719134711381  0.1378253780794338  0.2196483616809459   F   F   F
  0.5049343092919258  0.1342329005844221  0.2753346639229477   F   F   F
  0.0002779834729481  0.6439110396719201  0.7890185909331180   F   F   F
  0.5025931486233475  0.3612590029029619  0.2841882139508769   F   F   F
  0.9936078682011527  0.8620196718727016  0.7748628156069515   F   F   F
  0.3789964794399125  0.8350778616544616  0.7938564631041061   F   F   F
  0.1178260409153467  0.3365432635207242  0.2925841453558462   F   F   F
  0.3862924798773122  0.6597537129157516  0.7997985767967677   F   F   F
  0.1224110090183643  0.1692008901596225  0.2895016728108857   F   F   F
  0.6207944789725417  0.1653792173984527  0.2030538071101446   F   F   F
  0.8855370177958974  0.6594759148140312  0.7049128852377535   F   F   F
  0.6177029989122786  0.3365178099063186  0.2067132849966455   F   F   F
  0.8765294912747024  0.8347262162062350  0.7027928251607420   F   F   F
  0.4391952327165782  0.7499622397541543  0.6742880698456162   F   F   F
  0.0664749765330228  0.2505139172523627  0.1589723562687269   F   F   F
  0.5646387596083713  0.2479865812032855  0.3338168791508878   F   F   F
  0.9287658602564832  0.7515243347837597  0.8358998282636207   F   F   F
  0.3094657429423364  0.8685396840822222  0.9526511576758310   F   F   F
  0.1820748156058585  0.3653187062090382  0.4597216579069965   F   F   F
  0.3161829389024149  0.6366160337605535  0.9617177113386504   F   F   F
  0.1877350000200693  0.1345469050290191  0.4526763799083895   F   F   F
  0.6906877600714552  0.1294366756326042  0.0443863753603964   F   F   F
  0.8137226980988146  0.6328575328177877  0.5441408585537815   F   F   F
  0.6844497572265666  0.3658412340589052  0.0437184964956003   F   F   F
  0.8055981964305801  0.8708755556288281  0.5443138204818254   F   F   F
  0.2486106609376435  0.8430842836128392  0.7808459138841854   F   F   F
  0.2482835294431283  0.3384293531799116  0.2940795973158927   F   F   F
  0.2563244451928952  0.6651040385585816  0.7885384838796199   F   F   F
  0.2529795435719606  0.1561873409854684  0.2840334119742565   F   F   F
  0.7510860107582360  0.1596302858241643  0.2145030211544210   F   F   F
  0.7554538090032139  0.6638333992570153  0.7158165425592671   F   F   F
  0.7479531151502101  0.3357308482737835  0.2120030292537649   F   F   F
  0.7462423633427591  0.8416621671568407  0.7149601500338889   F   F   F
  0.2886316998117948  0.7537158898631588  0.0460918129796752   F   F   F
  0.2174468365630347  0.2494338326214489  0.5393329381094603   F   F   F
  0.7094249468865854  0.2480896203330332  0.9620988159367130   F   F   F
  0.7945414422724184  0.7514110944013410  0.4608629949330663   F   F   F
  0.1883059409879024  0.8349403002849201  0.0027954348125547   F   F   F
  0.3063149838758221  0.3467135618299650  0.5119910377451689   F   F   F
  0.1943386002081624  0.6624259400899177  0.0151610376373341   F   F   F
  0.3097005030958684  0.1558486367849099  0.5120133965339662   F   F   F
  0.8101198497707216  0.1636703022503667  0.9860315291645847   F   F   F
  0.6930998439307956  0.6700614542408445  0.4926716536372098   F   F   F
  0.8062346093725168  0.3367434693511626  0.9915344438758567   F   F   F
  0.6889857223621547  0.8290060279670612  0.4814996758683989   F   F   F
  0.0922810600641881  0.7460021082809192  0.0385306333527140   F   F   F
  0.3981089694928315  0.2529187969995377  0.5474385224829703   F   F   F
  0.9072066912232870  0.2533249161267932  0.9618594899085480   F   F   F
  0.5868969909969195  0.7456765399050767  0.4491269561123374   F   F   F
  0.0683071306737872  0.8569432753646851  0.9350694505504293   F   F   F
  0.4263491217653481  0.3633775036449620  0.4427087483535885   F   F   F
  0.0777371903879143  0.6285741078631943  0.9461016612163604   F   F   F
  0.4268196288965598  0.1499233569197855  0.4293869252783225   F   F   F
  0.9275439640601633  0.1402473220277614  0.0619857885318922   F   F   F
  0.5759185035687722  0.6349200952560210  0.5588923301311723   F   F   F
  0.9240143171524338  0.3686703134498259  0.0587359829063914   F   F   F
  0.5739700458678811  0.8526680864772729  0.5663159432254687   F   F   F
  0.1199631419616622  0.8342456956167510  0.7535562999963901   F   F   F
  0.3761218024091093  0.3370196018443110  0.2606384535741739   F   F   F
  0.1273618738896900  0.6619460786091480  0.7667789286272253   F   F   F
  0.3796211467198702  0.1632498032569387  0.2421318380610487   F   F   F
  0.8791442372976590  0.1628001423949854  0.2460709324094026   F   F   F
  0.6265517297368035  0.6621611124219626  0.7403842295249063   F   F   F
  0.8764677458706203  0.3378516762594757  0.2406349258045850   F   F   F
  0.6193111472209054  0.8355209309500538  0.7529136668086522   F   F   F
  0.1983856580720982  0.7488799297432038  0.6625451172538632   F   F   F
  0.2987541261835460  0.2526297906054396  0.1639822524672709   F   F   F
  0.8026899653141584  0.2500885111809197  0.3382706216031792   F   F   F
  0.6992957437522449  0.7493174363003234  0.8405334606767667   F   F   F
  0.4257567431463727  0.0632262219008197  0.6845946250275574   F   F   F
  0.0727328264328051  0.5654317597628236  0.1971235506218392   F   F   F
  0.4271909716442934  0.4371983550151128  0.6976123097842901   F   F   F
  0.0747983558955454  0.9332008297666050  0.1861625713531012   F   F   F
  0.5731340647552798  0.9354784823094846  0.3106831933975727   F   F   F
  0.9273601075729516  0.4352107106475529  0.8077236335979947   F   F   F
  0.5743510670778136  0.5607960202366868  0.3074269569100494   F   F   F
  0.9253150416965354  0.0671699716023397  0.8102849254640461   F   F   F
  0.3210689713103037  0.0322994751404764  0.8389173749082843   F   F   F
  0.1770975441351155  0.5309629102340949  0.3484412559689289   F   F   F
  0.3225434105866967  0.4693305731443544  0.8493105494831639   F   F   F
  0.1777423973690304  0.9708514618277135  0.3405774788543852   F   F   F
  0.6787815697397619  0.9693823404782833  0.1584346626251261   F   F   F
  0.8224607770582537  0.4683798090641673  0.6557617652810706   F   F   F
  0.6782098149502858  0.5292036852227326  0.1546054842969440   F   F   F
  0.8200109653599696  0.0314075986749813  0.6578093855408795   F   F   F
  0.2771770200298036  0.0550024925996482  0.0556048604669925   F   F   F
  0.2234403235655904  0.5493318411442871  0.5677016160849817   F   F   F
  0.2767532653427835  0.4526381190563527  0.0687330415621901   F   F   F
  0.2196036923835223  0.9472517221967678  0.5590556866281204   F   F   F
  0.7212208302467289  0.9496257044142524  0.9401136349950363   F   F   F
  0.7769453089268339  0.4495703393669856  0.4365023306290041   F   F   F
  0.7234498025751321  0.5479061699193579  0.9348657954410200   F   F   F
  0.7787596384343871  0.0506600009541529  0.4384227028954868   F   F   F
  0.1221070544225356  0.0576736585651076  0.0465411328703809   F   F   F
  0.3791169250890860  0.5581041634639590  0.5558009042767509   F   F   F
  0.1212702889328057  0.4441510098576771  0.0538905474496900   F   F   F
  0.3753598639811742  0.9387702414519055  0.5471767661780689   F   F   F
  0.8764169462312807  0.9433788235434832  0.9499423485396363   F   F   F
  0.6216358421828190  0.4382559602030085  0.4490799446003564   F   F   F
  0.8794664114227970  0.5578136779664860  0.9483910013000596   F   F   F
  0.6232071101764305  0.0586276760459228  0.4497185782322859   F   F   F
  0.0743780275590993  0.0370180438459187  0.8241388396777083   F   F   F
  0.4246510278893751  0.5390446063434027  0.3325530560039809   F   F   F
  0.0758343056831379  0.4604301760129630  0.8288979936109868   F   F   F
  0.4233968608353464  0.9626254259807610  0.3245902587326484   F   F   F
  0.9252556295303691  0.9607821598887085  0.1725032009993939   F   F   F
  0.5772232391420786  0.4591029835665665  0.6721878283139944   F   F   F
  0.9233605610679092  0.5408607209665348  0.1746509330762791   F   F   F
  0.5760751364985310  0.0371051271804248  0.6719261715719327   F   F   F
  0.2009315271319210  0.0719687526260202  0.7104697510035578   F   F   F
  0.2969166567238446  0.5767741136347624  0.2205557568286025   F   F   F
  0.2044778192220491  0.4242178660700660  0.7183199810913408   F   F   F
  0.2961074275791802  0.9329315601725554  0.2082742597184009   F   F   F
  0.7983242163165869  0.9270321865186801  0.2859845419654548   F   F   F
  0.7038049030370672  0.4231278834617314  0.7847851553403871   F   F   F
  0.7951025726091885  0.5750841026556728  0.2862629083146402   F   F   F
  0.7009823185877124  0.0727430880944624  0.7868457841671699   F   F   F
  0.4260873843538562  0.8295902298545954  0.6958596277731175   F   F   F
  0.0740999951316184  0.3290423482772553  0.1909975268677115   F   F   F
  0.4295294571082167  0.6706972486991134  0.6998070378946508   F   F   F
  0.0753428921679173  0.1719154249663006  0.1910259641864727   F   F   F
  0.5745641505882020  0.1695351327943655  0.3024093641196686   F   F   F
  0.9264005324280902  0.6719894220171199  0.8081258485755143   F   F   F
  0.5737130977284366  0.3272271618539619  0.3073472051981554   F   F   F
  0.9223851425616232  0.8299484538365363  0.8026060833066850   F   F   F
  0.3138123486183417  0.8748667773075667  0.8313758996843532   F   F   F
  0.1823486784547299  0.3733034729972289  0.3388618827702956   F   F   F
  0.3179685620038057  0.6269638819279280  0.8412067427529877   F   F   F
  0.1849609219434498  0.1274910969280469  0.3319417591961695   F   F   F
  0.6862592985398663  0.1256212341680083  0.1653597353596368   F   F   F
  0.8176397164217235  0.6256203867527717  0.6649572179482348   F   F   F
  0.6838653944231297  0.3723162818687911  0.1645924563000065   F   F   F
  0.8114629068897798  0.8749146485303356  0.6651937346380095   F   F   F
  0.2651243243830947  0.8305820718249493  0.0359368914347726   F   F   F
  0.2303610329969104  0.3295971382330762  0.5410909110064352   F   F   F
  0.2713062961056991  0.6739017404559249  0.0453994137314240   F   F   F
  0.2326342015534735  0.1701595487784147  0.5377879283843043   F   F   F
  0.7323442577626125  0.1704065963425663  0.9604860951681644   F   F   F
  0.7706146133038558  0.6737167775138175  0.4619301070993842   F   F   F
  0.7293878243772198  0.3266835649498958  0.9615523709808400   F   F   F
  0.7674703490215222  0.8278445869717217  0.4589232178308151   F   F   F
  0.1104904984364268  0.8251193451224523  0.0266128895997824   F   F   F
  0.3836744260036014  0.3329387351508402  0.5350660114486274   F   F   F
  0.1159683836937049  0.6680187571389880  0.0354339766237999   F   F   F
  0.3873028440115505  0.1732636058979296  0.5283007402343500   F   F   F
  0.8886415669339911  0.1741614485507057  0.9687095367058873   F   F   F
  0.6149214166726225  0.6687176296235648  0.4657795023722500   F   F   F
  0.8845515334214085  0.3313269957789302  0.9687907016033819   F   F   F
  0.6097715630990308  0.8238229218017992  0.4665573310172633   F   F   F
  0.0671853419748984  0.8776450024231792  0.8170517851684806   F   F   F
  0.4294969981709471  0.3805053468896844  0.3238326714528483   F   F   F
  0.0721890060364814  0.6186919289899819  0.8255326436274402   F   F   F
  0.4298958105034103  0.1224898237206418  0.3146337390130327   F   F   F
  0.9314152699687099  0.1205348619063216  0.1797674061331165   F   F   F
  0.5735713884757914  0.6176169039691857  0.6778742605424242   F   F   F
  0.9293812393533898  0.3821566672799364  0.1785331264254424   F   F   F
  0.5700998306815563  0.8780667733733623  0.6814126656013428   F   F   F
  0.1912615785010985  0.8262352819972421  0.6997829440397894   F   F   F
  0.3042459677806875  0.3282086233198882  0.2088403141516082   F   F   F
  0.1968210515708506  0.6733687130815724  0.7084674795782036   F   F   F
  0.3062904380083395  0.1743338637717144  0.1971435601960110   F   F   F
  0.8076526998796538  0.1731102509142985  0.2981930307437253   F   F   F
  0.6965822351421025  0.6730577118296992  0.7967965376465287   F   F   F
  0.8057932213538948  0.3262828987608088  0.2949516717993461   F   F   F
  0.6922226055015983  0.8263165038574556  0.8015148902867892   F   F   F
  0.3063012537275398  0.7674175055399033  0.3654351184826297   F   F   F
  0.4002718304723700  0.8097175524859850  0.2843279599786044   F   F   F
  0.3702959536303823  0.7087918520597896  0.4687992033411632   F   F   F
  0.4646214201141774  0.7494150531764632  0.3977289204102235   F   F   F
  0.4668786638938016  0.7631011675143711  0.1183509096645636   T   T   T
  0.4846713679628820  0.6880734127709971  0.1249851596594098   T   T   T
  0.5207799962841406  0.6698961445361533  0.0660475070326356   T   T   T
  0.4394946387293572  0.6553889823500825  0.1158314370455287   T   T   T
  0.5050580883053613  0.6764539403055494  0.1990879846422118   T   T   T
  0.4388108033707638  0.7737008642413201  0.0473928222752349   T   T   T
  0.5095239013363368  0.7950418007683453  0.1200231621626315   T   T   T
  0.4414344561628099  0.7464858709668079  0.2411237054856727   T   T   T
 
  0.00000000E+00  0.00000000E+00  0.00000000E+00
  0.00000000E+00  0.00000000E+00  0.00000000E+00
  0.00000000E+00  0.00000000E+00  0.00000000E+00
  0.00000000E+00  0.00000000E+00  0.00000000E+00
  0.00000000E+00  0.00000000E+00  0.00000000E+00
  0.00000000E+00  0.00000000E+00  0.00000000E+00
  0.00000000E+00  0.00000000E+00  0.00000000E+00
  0.00000000E+00  0.00000000E+00  0.00000000E+00
  0.00000000E+00  0.00000000E+00  0.00000000E+00
  0.00000000E+00  0.00000000E+00  0.00000000E+00
  0.00000000E+00  0.00000000E+00  0.00000000E+00
  0.00000000E+00  0.00000000E+00  0.00000000E+00
  0.00000000E+00  0.00000000E+00  0.00000000E+00
  0.00000000E+00  0.00000000E+00  0.00000000E+00
  0.00000000E+00  0.00000000E+00  0.00000000E+00
  0.00000000E+00  0.00000000E+00  0.00000000E+00
  0.00000000E+00  0.00000000E+00  0.00000000E+00
  0.00000000E+00  0.00000000E+00  0.00000000E+00
  0.00000000E+00  0.00000000E+00  0.00000000E+00
  0.00000000E+00  0.00000000E+00  0.00000000E+00
  0.00000000E+00  0.00000000E+00  0.00000000E+00
  0.00000000E+00  0.00000000E+00  0.00000000E+00
  0.00000000E+00  0.00000000E+00  0.00000000E+00
  0.00000000E+00  0.00000000E+00  0.00000000E+00
  0.00000000E+00  0.00000000E+00  0.00000000E+00
  0.00000000E+00  0.00000000E+00  0.00000000E+00
  0.00000000E+00  0.00000000E+00  0.00000000E+00
  0.00000000E+00  0.00000000E+00  0.00000000E+00
  0.00000000E+00  0.00000000E+00  0.00000000E+00
  0.00000000E+00  0.00000000E+00  0.00000000E+00
  0.00000000E+00  0.00000000E+00  0.00000000E+00
  0.00000000E+00  0.00000000E+00  0.00000000E+00
  0.00000000E+00  0.00000000E+00  0.00000000E+00
  0.00000000E+00  0.00000000E+00  0.00000000E+00
  0.00000000E+00  0.00000000E+00  0.00000000E+00
  0.00000000E+00  0.00000000E+00  0.00000000E+00
  0.00000000E+00  0.00000000E+00  0.00000000E+00
  0.00000000E+00  0.00000000E+00  0.00000000E+00
  0.00000000E+00  0.00000000E+00  0.00000000E+00
  0.00000000E+00  0.00000000E+00  0.00000000E+00
  0.00000000E+00  0.00000000E+00  0.00000000E+00
  0.00000000E+00  0.00000000E+00  0.00000000E+00
  0.00000000E+00  0.00000000E+00  0.00000000E+00
  0.00000000E+00  0.00000000E+00  0.00000000E+00
  0.00000000E+00  0.00000000E+00  0.00000000E+00
  0.00000000E+00  0.00000000E+00  0.00000000E+00
  0.00000000E+00  0.00000000E+00  0.00000000E+00
  0.00000000E+00  0.00000000E+00  0.00000000E+00
  0.00000000E+00  0.00000000E+00  0.00000000E+00
  0.00000000E+00  0.00000000E+00  0.00000000E+00
  0.00000000E+00  0.00000000E+00  0.00000000E+00
  0.00000000E+00  0.00000000E+00  0.00000000E+00
  0.00000000E+00  0.00000000E+00  0.00000000E+00
  0.00000000E+00  0.00000000E+00  0.00000000E+00
  0.00000000E+00  0.00000000E+00  0.00000000E+00
  0.00000000E+00  0.00000000E+00  0.00000000E+00
  0.00000000E+00  0.00000000E+00  0.00000000E+00
  0.00000000E+00  0.00000000E+00  0.00000000E+00
  0.00000000E+00  0.00000000E+00  0.00000000E+00
  0.00000000E+00  0.00000000E+00  0.00000000E+00
  0.00000000E+00  0.00000000E+00  0.00000000E+00
  0.00000000E+00  0.00000000E+00  0.00000000E+00
  0.00000000E+00  0.00000000E+00  0.00000000E+00
  0.00000000E+00  0.00000000E+00  0.00000000E+00
  0.00000000E+00  0.00000000E+00  0.00000000E+00
  0.00000000E+00  0.00000000E+00  0.00000000E+00
  0.00000000E+00  0.00000000E+00  0.00000000E+00
  0.00000000E+00  0.00000000E+00  0.00000000E+00
  0.00000000E+00  0.00000000E+00  0.00000000E+00
  0.00000000E+00  0.00000000E+00  0.00000000E+00
  0.00000000E+00  0.00000000E+00  0.00000000E+00
  0.00000000E+00  0.00000000E+00  0.00000000E+00
  0.00000000E+00  0.00000000E+00  0.00000000E+00
  0.00000000E+00  0.00000000E+00  0.00000000E+00
  0.00000000E+00  0.00000000E+00  0.00000000E+00
  0.00000000E+00  0.00000000E+00  0.00000000E+00
  0.00000000E+00  0.00000000E+00  0.00000000E+00
  0.00000000E+00  0.00000000E+00  0.00000000E+00
  0.00000000E+00  0.00000000E+00  0.00000000E+00
  0.00000000E+00  0.00000000E+00  0.00000000E+00
  0.00000000E+00  0.00000000E+00  0.00000000E+00
  0.00000000E+00  0.00000000E+00  0.00000000E+00
  0.00000000E+00  0.00000000E+00  0.00000000E+00
  0.00000000E+00  0.00000000E+00  0.00000000E+00
  0.00000000E+00  0.00000000E+00  0.00000000E+00
  0.00000000E+00  0.00000000E+00  0.00000000E+00
  0.00000000E+00  0.00000000E+00  0.00000000E+00
  0.00000000E+00  0.00000000E+00  0.00000000E+00
  0.00000000E+00  0.00000000E+00  0.00000000E+00
  0.00000000E+00  0.00000000E+00  0.00000000E+00
  0.00000000E+00  0.00000000E+00  0.00000000E+00
  0.00000000E+00  0.00000000E+00  0.00000000E+00
  0.00000000E+00  0.00000000E+00  0.00000000E+00
  0.00000000E+00  0.00000000E+00  0.00000000E+00
  0.00000000E+00  0.00000000E+00  0.00000000E+00
  0.00000000E+00  0.00000000E+00  0.00000000E+00
  0.00000000E+00  0.00000000E+00  0.00000000E+00
  0.00000000E+00  0.00000000E+00  0.00000000E+00
  0.00000000E+00  0.00000000E+00  0.00000000E+00
  0.00000000E+00  0.00000000E+00  0.00000000E+00
  0.00000000E+00  0.00000000E+00  0.00000000E+00
  0.00000000E+00  0.00000000E+00  0.00000000E+00
  0.00000000E+00  0.00000000E+00  0.00000000E+00
  0.00000000E+00  0.00000000E+00  0.00000000E+00
  0.00000000E+00  0.00000000E+00  0.00000000E+00
  0.00000000E+00  0.00000000E+00  0.00000000E+00
  0.00000000E+00  0.00000000E+00  0.00000000E+00
  0.00000000E+00  0.00000000E+00  0.00000000E+00
  0.00000000E+00  0.00000000E+00  0.00000000E+00
  0.00000000E+00  0.00000000E+00  0.00000000E+00
  0.00000000E+00  0.00000000E+00  0.00000000E+00
  0.00000000E+00  0.00000000E+00  0.00000000E+00
  0.00000000E+00  0.00000000E+00  0.00000000E+00
  0.00000000E+00  0.00000000E+00  0.00000000E+00
  0.00000000E+00  0.00000000E+00  0.00000000E+00
  0.00000000E+00  0.00000000E+00  0.00000000E+00
  0.00000000E+00  0.00000000E+00  0.00000000E+00
  0.00000000E+00  0.00000000E+00  0.00000000E+00
  0.00000000E+00  0.00000000E+00  0.00000000E+00
  0.00000000E+00  0.00000000E+00  0.00000000E+00
  0.00000000E+00  0.00000000E+00  0.00000000E+00
  0.00000000E+00  0.00000000E+00  0.00000000E+00
  0.00000000E+00  0.00000000E+00  0.00000000E+00
  0.00000000E+00  0.00000000E+00  0.00000000E+00
  0.00000000E+00  0.00000000E+00  0.00000000E+00
  0.00000000E+00  0.00000000E+00  0.00000000E+00
  0.00000000E+00  0.00000000E+00  0.00000000E+00
  0.00000000E+00  0.00000000E+00  0.00000000E+00
  0.00000000E+00  0.00000000E+00  0.00000000E+00
  0.00000000E+00  0.00000000E+00  0.00000000E+00
  0.00000000E+00  0.00000000E+00  0.00000000E+00
  0.00000000E+00  0.00000000E+00  0.00000000E+00
  0.00000000E+00  0.00000000E+00  0.00000000E+00
  0.00000000E+00  0.00000000E+00  0.00000000E+00
  0.00000000E+00  0.00000000E+00  0.00000000E+00
  0.00000000E+00  0.00000000E+00  0.00000000E+00
  0.00000000E+00  0.00000000E+00  0.00000000E+00
  0.00000000E+00  0.00000000E+00  0.00000000E+00
  0.00000000E+00  0.00000000E+00  0.00000000E+00
  0.00000000E+00  0.00000000E+00  0.00000000E+00
  0.00000000E+00  0.00000000E+00  0.00000000E+00
  0.00000000E+00  0.00000000E+00  0.00000000E+00
  0.00000000E+00  0.00000000E+00  0.00000000E+00
  0.00000000E+00  0.00000000E+00  0.00000000E+00
  0.00000000E+00  0.00000000E+00  0.00000000E+00
  0.00000000E+00  0.00000000E+00  0.00000000E+00
  0.00000000E+00  0.00000000E+00  0.00000000E+00
  0.00000000E+00  0.00000000E+00  0.00000000E+00
  0.00000000E+00  0.00000000E+00  0.00000000E+00
  0.00000000E+00  0.00000000E+00  0.00000000E+00
  0.00000000E+00  0.00000000E+00  0.00000000E+00
  0.00000000E+00  0.00000000E+00  0.00000000E+00
  0.00000000E+00  0.00000000E+00  0.00000000E+00
  0.00000000E+00  0.00000000E+00  0.00000000E+00
  0.00000000E+00  0.00000000E+00  0.00000000E+00
  0.00000000E+00  0.00000000E+00  0.00000000E+00
  0.00000000E+00  0.00000000E+00  0.00000000E+00
  0.00000000E+00  0.00000000E+00  0.00000000E+00