 O Si Ru                                
   1.00000000000000     
    20.3096463179830877    0.0000000000000000    0.0000000000000000
     0.0000000000000000   19.8625212307842212    0.0000000000000000
     0.0000000000000000    0.0000000000000000   13.3711533343531652
   O    Si   Ru
   192    96     2
Selective dynamics
Direct
  0.5029151419623886  0.0735660596726240  0.7069316305773702   T   T   T
  0.9975465120921563  0.5722056013321436  0.2087406600889262   T   T   T
  0.5029625376940230  0.4265088223227359  0.7071140439527178   T   T   T
  0.9975049120642533  0.9275859515950587  0.2084007766859528   T   T   T
  0.4975879580216082  0.9278162892634656  0.2901253529247926   T   T   T
  0.0032184386695475  0.4269330484855108  0.7921409749159627   T   T   T
  0.4977203592960967  0.5720242044357087  0.2903984015411690   T   T   T
  0.0031941412613900  0.0729668753257328  0.7917158063303029   T   T   T
  0.3878579723645428  0.0669556667519220  0.7965548156122182   T   T   T
  0.1133759987999556  0.5681642766849010  0.2964373645987897   T   T   T
  0.3878584358486888  0.4330437684886554  0.7965742164748145   T   T   T
  0.1132329058698844  0.9319445967047389  0.2964166833211399   T   T   T
  0.6133965873321083  0.9317919180189933  0.2029169050037533   T   T   T
  0.8876973671888947  0.4327342034956764  0.7036508835393004   T   T   T
  0.6135821534334028  0.5682784344751027  0.2033449439821365   T   T   T
  0.8876117469000933  0.0673661435016183  0.7035018781795441   T   T   T
  0.4009161058478427  0.1389419031021118  0.6318180153029798   T   T   T
  0.0977430998124326  0.6392736437066742  0.1312597135815197   T   T   T
  0.4010424696537912  0.3610528181545123  0.6318133081225292   T   T   T
  0.0980103952821651  0.8607652253088145  0.1312529147886043   T   T   T
  0.5980442772435384  0.8613047032151795  0.3687325904177185   T   T   T
  0.9019278058779039  0.3610410398315004  0.8685731531220109   T   T   T
  0.5979555509202533  0.6388098794708498  0.3690430687548555   T   T   T
  0.9020589687179915  0.1389418631131742  0.8685141393728193   T   T   T
  0.4059805669348783  0.0047442563955901  0.6216751015979940   T   T   T
  0.0951764573732913  0.5048736608876493  0.1227496371721159   T   T   T
  0.4060063268505539  0.4952757309538729  0.6217644002593679   T   T   T
  0.0951038165614157  0.9951250008962699  0.1225611438304284   T   T   T
  0.5948055133848623  0.9957484977599131  0.3757295479997848   T   T   T
  0.9063174878259833  0.4953848205285457  0.8779651251188301   T   T   T
  0.5950752590078503  0.5043549968709037  0.3761727772273424   T   T   T
  0.9063218528932823  0.0045785558899199  0.8776992153014049   T   T   T
  0.3240114434950697  0.0382407076679200  0.9638230470655575   T   T   T
  0.1763485455368278  0.5378781522500647  0.4641542393044377   T   T   T
  0.3240639192643987  0.4618354887910752  0.9638665486159385   T   T   T
  0.1763672350880777  0.9620523319374079  0.4640606733161249   T   T   T
  0.6766165288593474  0.9620156982005816  0.0358890148913232   T   T   T
  0.8239264782183481  0.4615726959520271  0.5363529546552881   T   T   T
  0.6766273407468238  0.5380862158563419  0.0360413412402998   T   T   T
  0.8238113343158346  0.0383815205381494  0.5362542402135884   T   T   T
  0.3216922738839307  0.9534421701159898  0.8071307884330123   T   T   T
  0.1776758631529733  0.4534601678782423  0.3068976961336440   T   T   T
  0.3217291042215997  0.5466230856040672  0.8071625387420641   T   T   T
  0.1777392319064987  0.0465284403162713  0.3069405612850804   T   T   T
  0.6782953929680894  0.0464276494116278  0.1929820249193913   T   T   T
  0.8214903320832514  0.5463853187552145  0.6930224919608579   T   T   T
  0.6783411531563223  0.4536225664016960  0.1930928964972605   T   T   T
  0.8214980035068825  0.9536773181731186  0.6930475165374368   T   T   T
  0.2563457342386233  0.0684226129951068  0.8017762481607384   T   T   T
  0.2448952522016883  0.5671912581414162  0.3029801725596935   T   T   T
  0.2563604704749670  0.4316428390570628  0.8018556833268107   T   T   T
  0.2447655750352880  0.9326962002504509  0.3027215993959178   T   T   T
  0.7448918397443354  0.9321961120306409  0.1975057498879489   T   T   T
  0.7562410131176860  0.4314383528184758  0.6983979119208177   T   T   T
  0.7450790913829777  0.5677876932779443  0.1974180494790899   T   T   T
  0.7561874466482185  0.0686029683221890  0.6982838657223304   T   T   T
  0.2923457530791956  0.1261305060342976  0.1042687178754117   T   T   T
  0.2084869680680476  0.6260258117408826  0.6042332072414538   T   T   T
  0.2924222850649307  0.3739550916486247  0.1043750301760964   T   T   T
  0.2083634709778088  0.8739875915707315  0.6042150270120180   T   T   T
  0.7087980788512166  0.8739192040793914  0.8958919737509754   T   T   T
  0.7920626114484876  0.3741440791997889  0.3955590558159946   T   T   T
  0.7088285788396070  0.6261899380044206  0.8960287356991028   T   T   T
  0.7918328172678563  0.1258395964698511  0.3955348022627314   T   T   T
  0.2009180106485920  0.0428348962614344  0.0293984412057958   T   T   T
  0.2996968197579477  0.5426935160259482  0.5294112209857998   T   T   T
  0.2010372834083461  0.4573071122565661  0.0296181964629246   T   T   T
  0.2997124980964507  0.9572001258237801  0.5293681352781356   T   T   T
  0.7996560600053909  0.9580423497828106  0.9700594430030967   T   T   T
  0.7007908648720991  0.4573025797676180  0.4705712418615584   T   T   T
  0.7997060817570421  0.5420944581861166  0.9703302267615287   T   T   T
  0.7006462591275362  0.0424959606184886  0.4703037048025676   T   T   T
  0.2965493550864384  0.9965923686744826  0.1466848284870439   T   T   T
  0.2042062705839187  0.4967531181442932  0.6471179485467586   T   T   T
  0.2967512456497944  0.5034965594674682  0.1468170404423272   T   T   T
  0.2042827147657749  0.0033044922153651  0.6469642495983589   T   T   T
  0.7035695737600202  0.0031082455789978  0.8524917251822987   T   T   T
  0.7966009577419343  0.5038039927924625  0.3537093559488996   T   T   T
  0.7037483821235953  0.4970039567455022  0.8526551329040741   T   T   T
  0.7966624191072965  0.9962088678741257  0.3535649955711459   T   T   T
  0.1093131791865702  0.1272507473097607  0.0964945470806670   T   T   T
  0.3907541144559359  0.6270449256934543  0.5993007602161452   T   T   T
  0.1096159065423519  0.3727429065902911  0.0968433397711867   T   T   T
  0.3909445636526238  0.8729834497465203  0.5990477336781042   T   T   T
  0.8903159487235653  0.8727319470100651  0.9024185553090727   T   T   T
  0.6094185792695018  0.3723840888363106  0.4038542259655466   T   T   T
  0.8903827125823867  0.6272617833779119  0.9024496089175241   T   T   T
  0.6094041022901219  0.1276315479534131  0.4037605891893715   T   T   T
  0.0831048349475747  0.0475109685477979  0.9435687042287569   T   T   T
  0.4176871806418099  0.5499813561623798  0.4438436836473425   T   T   T
  0.0831856777148335  0.4523523729842567  0.9438997465468019   T   T   T
  0.4176278228369198  0.9501320282719447  0.4435974822853062   T   T   T
  0.9172918951703211  0.9512357810987353  0.0563867473567020   T   T   T
  0.5827906879946040  0.4530925389524403  0.5556375829759831   T   T   T
  0.9173413997613421  0.5488456328287398  0.0565855780411952   T   T   T
  0.5826187119468298  0.0467912904197667  0.5553540539617144   T   T   T
  0.1296231040844835  0.0799627804155015  0.7634423203244195   T   T   T
  0.3713805715389945  0.5807279038530397  0.2623249302738859   T   T   T
  0.1296318253701902  0.4200410798835756  0.7636759413020192   T   T   T
  0.3712567350687522  0.9193600220311549  0.2620617006226150   T   T   T
  0.8712757310977256  0.9195104078438218  0.2371888406762383   T   T   T
  0.6292993944101134  0.4207916246772959  0.7356744224965189   T   T   T
  0.8713626048482637  0.5804791718471378  0.2374900436238312   T   T   T
  0.6292492851724544  0.0793042870953132  0.7352598947508929   T   T   T
  0.0748588083345543  0.9607594903769185  0.7919771976290154   T   T   T
  0.4241131313273639  0.4613752091790682  0.2948144036777711   T   T   T
  0.0748028995871114  0.5391836990524378  0.7923195950701635   T   T   T
  0.4241964469789899  0.0386462131336489  0.2945780170194419   T   T   T
  0.9248077689555806  0.0391348004589232  0.2067119060627084   T   T   T
  0.5730250382433556  0.5395395133105303  0.7075292341394839   T   T   T
  0.9246677977408961  0.4608033835361263  0.2067758124953841   T   T   T
  0.5729692089158158  0.9605454921538821  0.7075250596659393   T   T   T
  0.2161824121332002  0.1373904738735898  0.6463271447778774   T   T   T
  0.2834636880428299  0.6373423287702636  0.1474453287622728   T   T   T
  0.2161517510064452  0.3626744318723062  0.6464343906898786   T   T   T
  0.2833718064283905  0.8627017093388750  0.1471270234583612   T   T   T
  0.7836013389799346  0.8622202332874798  0.3529809328931201   T   T   T
  0.7150253360603152  0.3628167424777718  0.8534947758407940   T   T   T
  0.7835422008692975  0.6377857348236496  0.3530219686602977   T   T   T
  0.7148261493384306  0.1372886464544681  0.8532633160024892   T   T   T
  0.4971166322671438  0.8519875998522159  0.7151020646149946   T   T   T
  0.0036584267006610  0.3545747407892614  0.2132407109572469   T   T   T
  0.4969303868040645  0.6479448491328720  0.7153900523302695   T   T   T
  0.0035385368081571  0.1455500153788098  0.2131493366729098   T   T   T
  0.5037287630216616  0.1445781717231234  0.2864470147087263   T   T   T
  0.9967811765767431  0.6462525873503517  0.7871326365493709   T   T   T
  0.5037707510527225  0.3555116669135504  0.2864961434610806   T   T   T
  0.9968303840149273  0.8537312848766838  0.7872668469836082   T   T   T
  0.3794074481985888  0.8341328394924091  0.7898594808244139   T   T   T
  0.1210268688035420  0.3338110613837514  0.2872208120334170   T   T   T
  0.3792395775635635  0.6660707127198898  0.7900325284662985   T   T   T
  0.1209586482013013  0.1660553506375660  0.2869694551628615   T   T   T
  0.6210864063625009  0.1658884040414241  0.2130439895052143   T   T   T
  0.8798121357915942  0.6652792432526914  0.7112846188400493   T   T   T
  0.6211110157533301  0.3341538800550234  0.2131485949028545   T   T   T
  0.8799878667857873  0.8348440987374649  0.7111684047795709   T   T   T
  0.4227250717957532  0.7500090672088925  0.6494393250933068   T   T   T
  0.0746191832608722  0.2500230315660996  0.1491574075772433   T   T   T
  0.5737535633323592  0.2500033269389557  0.3499372146450697   T   T   T
  0.9242042391637171  0.7500140922425381  0.8495874435596086   T   T   T
  0.3159489795919668  0.8658875446372032  0.9556232952821078   T   T   T
  0.1831382099758744  0.3656193254218109  0.4546788161282890   T   T   T
  0.3158743943605804  0.6340187351338721  0.9558006526856181   T   T   T
  0.1830710617180652  0.1345150281137797  0.4545914900688213   T   T   T
  0.6830517762348902  0.1344874634880160  0.0452736917138166   T   T   T
  0.8164566230256267  0.6340226486628314  0.5446209164810424   T   T   T
  0.6830854472072705  0.3655253709567773  0.0454288807432008   T   T   T
  0.8164964655029647  0.8660661869018332  0.5445823533478096   T   T   T
  0.2489873669411194  0.8433816055228776  0.7888284850374472   T   T   T
  0.2513284304882748  0.3439160443049883  0.2888596437238748   T   T   T
  0.2488509216711129  0.6566147656119263  0.7890449853729713   T   T   T
  0.2512496259875321  0.1561531436267404  0.2887659973841152   T   T   T
  0.7514064122389237  0.1563514770940803  0.2107774734307771   T   T   T
  0.7494120189094087  0.6568198273629179  0.7112615180253791   T   T   T
  0.7514333991542240  0.3437018738677284  0.2109204239965441   T   T   T
  0.7496100311469716  0.8431495028139175  0.7113061537716099   T   T   T
  0.2977675935720102  0.7499752942230595  0.0492412172106231   T   T   T
  0.2037513614112389  0.2500402232570501  0.5473130572547674   T   T   T
  0.7036288451255419  0.2500227799147433  0.9524367183681045   T   T   T
  0.7952392961980977  0.7500316941432803  0.4534651264550509   T   T   T
  0.1957603613655735  0.8299608253341259  0.0077334089670030   T   T   T
  0.3039760542072025  0.3321511197779431  0.5063204852821098   T   T   T
  0.1957341984865762  0.6699224685795868  0.0081918502400701   T   T   T
  0.3039535270350321  0.1678850199576356  0.5061614664230759   T   T   T
  0.8037674365760618  0.1675499430433015  0.9919476301601654   T   T   T
  0.6954036880791353  0.6671525329255583  0.4935708403909880   T   T   T
  0.8038193000716293  0.3323998958156932  0.9923103515000234   T   T   T
  0.6954271653114076  0.8329890979264001  0.4934786443339279   T   T   T
  0.0911430098955652  0.7500196740491385  0.0216097042631325   T   T   T
  0.4070684857934572  0.2499810289984372  0.5234879823940229   T   T   T
  0.9068306617426158  0.2499858845960930  0.9771434341541787   T   T   T
  0.5929540483968795  0.7501056049942755  0.4780409918539943   T   T   T
  0.0817758231076569  0.8700477936124246  0.9354317104892809   T   T   T
  0.4196731292247484  0.3690835510139400  0.4362494260570963   T   T   T
  0.0817810231825544  0.6300981392465789  0.9353479540604781   T   T   T
  0.4196318579545574  0.1308483549065913  0.4362280688829107   T   T   T
  0.9187871414795681  0.1307480475178448  0.0643944961596982   T   T   T
  0.5799695599017044  0.6309607679235565  0.5649043401493784   T   T   T
  0.9189813415853818  0.3691962182345969  0.0643979391319884   T   T   T
  0.5800598887008339  0.8693818997055661  0.5645852735730391   T   T   T
  0.1222548208672111  0.8402783602691501  0.7487482089773192   T   T   T
  0.3782191667140117  0.3406282260943789  0.2495822814269232   T   T   T
  0.1221930552598295  0.6596150179784961  0.7485139472776364   T   T   T
  0.3781398319688963  0.1593484212036208  0.2495850342034563   T   T   T
  0.8780772199561631  0.1597428608575593  0.2513021010905354   T   T   T
  0.6226545113740978  0.6591439890787640  0.7512274651964513   T   T   T
  0.8781527669198409  0.3400969411418038  0.2511874583142398   T   T   T
  0.6228249502060965  0.8409673008936119  0.7508236829466467   T   T   T
  0.2010385669314661  0.7499953249552022  0.6668839256582707   T   T   T
  0.2996637301077050  0.2500277610362330  0.1677077677577786   T   T   T
  0.7990848778479572  0.2499825440223246  0.3330224582314473   T   T   T
  0.7007502498209226  0.7500393387326763  0.8331158062592345   T   T   T
  0.4243120677247733  0.0706248793323796  0.6882720414480857   T   T   T
  0.0760515629478538  0.5707141827737616  0.1887833199971885   T   T   T
  0.4243642501694127  0.4293781953153328  0.6883255931551735   T   T   T
  0.0760434303057726  0.9292910449230898  0.1886674989818402   T   T   T
  0.5760030994374715  0.9293456237839348  0.3105165880324953   T   T   T
  0.9246233627582796  0.4294307430317718  0.8116017276557091   T   T   T
  0.5761242863364573  0.5706873103235641  0.3109170475815357   T   T   T
  0.9246201416023543  0.0705567486414275  0.8113905219130179   T   T   T
  0.3223819734165485  0.0318316953936501  0.8430151480515427   T   T   T
  0.1780452314772213  0.5317164602638761  0.3432883448099028   T   T   T
  0.3224146420772770  0.4682209026483246  0.8430421287326886   T   T   T
  0.1780020947353669  0.9682480608466704  0.3432016038694330   T   T   T
  0.6783091662622631  0.9681055063697390  0.1567943926033557   T   T   T
  0.8222945580976029  0.4680597921700688  0.6571628257407169   T   T   T
  0.6784011481407315  0.5319538700143213  0.1569513425766537   T   T   T
  0.8222309627981074  0.0319692201244460  0.6570775164942975   T   T   T
  0.2779123087333685  0.0511264612777973  0.0613109493893412   T   T   T
  0.2226568316635699  0.5510577151876559  0.5612541371714013   T   T   T
  0.2780423512307551  0.4489808195105953  0.0614569707557561   T   T   T
  0.2226650610368371  0.9489150357942542  0.5611803582555331   T   T   T
  0.7226643440542988  0.9491402001635461  0.9384494704457231   T   T   T
  0.7778141510926544  0.4491288428941574  0.4387963766751790   T   T   T
  0.7227333495790293  0.5509907875996647  0.9386600761461807   T   T   T
  0.7777079553616203  0.0507975122443050  0.4386758489674871   T   T   T
  0.1224574189986968  0.0532732866075875  0.0483851064646886   T   T   T
  0.3779769887972217  0.5535711134250318  0.5484128788570247   T   T   T
  0.1226107360804684  0.4467220309073707  0.0486672413644988   T   T   T
  0.3780259816766892  0.9464643958451108  0.5482505132101992   T   T   T
  0.8779908886253472  0.9466073617012002  0.9514026227982930   T   T   T
  0.6224157232441305  0.4466922016762986  0.4511188640456659   T   T   T
  0.8780396312731427  0.5534298767382932  0.9515768464672445   T   T   T
  0.6222660347702507  0.0532503084769686  0.4508426119537347   T   T   T
  0.0728412340832666  0.0397062233897650  0.8238019586723648   T   T   T
  0.4277437962122672  0.5407555480855850  0.3241855554615867   T   T   T
  0.0728651157205223  0.4602342044834600  0.8241694721060911   T   T   T
  0.4276795117178320  0.9592510502167034  0.3239009308896494   T   T   T
  0.9275452390571843  0.9600147782953187  0.1760336201635767   T   T   T
  0.5722872311394732  0.4606056157916742  0.6753226260991936   T   T   T
  0.9275541845522677  0.5399426299954310  0.1762338123948478   T   T   T
  0.5722002755176171  0.0394245703525788  0.6750904917086119   T   T   T
  0.2016626826565667  0.0714697559756731  0.7134550092025692   T   T   T
  0.2988993987442153  0.5712898499085747  0.2141871586954204   T   T   T
  0.2016336523030239  0.4285870286521595  0.7135974393340615   T   T   T
  0.2987738169214597  0.9287386606023451  0.2139019900574598   T   T   T
  0.7990369044939845  0.9282528397036351  0.2864960671119922   T   T   T
  0.7012003299792309  0.4288186369106894  0.7861858612953682   T   T   T
  0.7990674709343172  0.5717379632341055  0.2865965737987664   T   T   T
  0.7010838455696169  0.0712665571672193  0.7859514996808162   T   T   T
  0.4230803572218378  0.8282142447918632  0.6885938618811716   T   T   T
  0.0769156502417129  0.3279886870119236  0.1860147788485278   T   T   T
  0.4229404597137282  0.6718507245469776  0.6887759286227219   T   T   T
  0.0768112818279411  0.1720160537428665  0.1858265876985076   T   T   T
  0.5767129546629616  0.1718671486741762  0.3139569590465906   T   T   T
  0.9230684209553974  0.6719672006372733  0.8132267466512308   T   T   T
  0.5767212789286451  0.3281510196691706  0.3140415784961005   T   T   T
  0.9230939196405407  0.8280626287152582  0.8132382220498455   T   T   T
  0.3163148394013675  0.8742033364015256  0.8348974165515410   T   T   T
  0.1833074541364991  0.3740495101119206  0.3339202901998921   T   T   T
  0.3162339934512803  0.6258460276752197  0.8350478464760015   T   T   T
  0.1832639004326141  0.1259627486727958  0.3338573048679171   T   T   T
  0.6834029271010682  0.1259062829963551  0.1659798546337827   T   T   T
  0.8168235359896773  0.6257710106890173  0.6653713161706046   T   T   T
  0.6834285715484468  0.3741454557802242  0.1661310163765623   T   T   T
  0.8169468062195038  0.8742967362801815  0.6653433533018598   T   T   T
  0.2725983594613802  0.8272119891787623  0.0400037962140541   T   T   T
  0.2271237881017707  0.3276058948125464  0.5390136658916943   T   T   T
  0.2726100738883944  0.6727144557304113  0.0402633649801518   T   T   T
  0.2271202873219282  0.1724799435127478  0.5389173023724448   T   T   T
  0.7267472501634817  0.1723610876501094  0.9604303881170468   T   T   T
  0.7721623647435509  0.6723229612336796  0.4608089531816726   T   T   T
  0.7268216124557787  0.3276504608084416  0.9606404345553141   T   T   T
  0.7721850601214955  0.8277495237971587  0.4608029837097752   T   T   T
  0.1166941534923633  0.8275313151115536  0.0243692527028093   T   T   T
  0.3827581189327907  0.3278378273251610  0.5246491080329792   T   T   T
  0.1166468603405567  0.6724859258264801  0.0244614942497958   T   T   T
  0.3827275409154692  0.1721328363621509  0.5246189896411009   T   T   T
  0.8826748189633353  0.1720728385653769  0.9752648999179711   T   T   T
  0.6164997609154189  0.6721132111551257  0.4758286273089218   T   T   T
  0.8827059240094106  0.3279195982384795  0.9753863353167550   T   T   T
  0.6165362706679900  0.8280815607558102  0.4756022247454723   T   T   T
  0.0693407577006747  0.8810421666813579  0.8162578225908385   T   T   T
  0.4310362713513302  0.3815536136468811  0.3171561254436827   T   T   T
  0.0692967740442307  0.6189585498739025  0.8162128883051627   T   T   T
  0.4310160210270050  0.1184563301937925  0.3171106125946993   T   T   T
  0.9308107186515537  0.1189823214311973  0.1834600447849811   T   T   T
  0.5688720957721619  0.6194391954130044  0.6841023730205048   T   T   T
  0.9308747943928388  0.3809922836910198  0.1834914197417521   T   T   T
  0.5689823883033023  0.8806830137000424  0.6838246963809573   T   T   T
  0.1949969754662128  0.8277348206112148  0.7021045042902208   T   T   T
  0.3055343881691075  0.3279008594260313  0.2027792002935421   T   T   T
  0.1949963969994805  0.6722605858140182  0.7021049615373373   T   T   T
  0.3054784587058802  0.1721382358153490  0.2027155232773447   T   T   T
  0.8051754997750702  0.1721935395061622  0.2975943809345435   T   T   T
  0.6953525553879157  0.6722127344469095  0.7977920954737168   T   T   T
  0.8052597360911471  0.3277658206369901  0.2976066237846574   T   T   T
  0.6954291205277571  0.8278479036447546  0.7976800610762224   T   T   T
  0.3767732000104951  0.7500123500064977  0.2789301182942418   T   T   T
  0.3980025050937583  0.7499420072505603  0.4446805483669061   T   T   T
 
  0.00000000E+00  0.00000000E+00  0.00000000E+00
  0.00000000E+00  0.00000000E+00  0.00000000E+00
  0.00000000E+00  0.00000000E+00  0.00000000E+00
  0.00000000E+00  0.00000000E+00  0.00000000E+00
  0.00000000E+00  0.00000000E+00  0.00000000E+00
  0.00000000E+00  0.00000000E+00  0.00000000E+00
  0.00000000E+00  0.00000000E+00  0.00000000E+00
  0.00000000E+00  0.00000000E+00  0.00000000E+00
  0.00000000E+00  0.00000000E+00  0.00000000E+00
  0.00000000E+00  0.00000000E+00  0.00000000E+00
  0.00000000E+00  0.00000000E+00  0.00000000E+00
  0.00000000E+00  0.00000000E+00  0.00000000E+00
  0.00000000E+00  0.00000000E+00  0.00000000E+00
  0.00000000E+00  0.00000000E+00  0.00000000E+00
  0.00000000E+00  0.00000000E+00  0.00000000E+00
  0.00000000E+00  0.00000000E+00  0.00000000E+00
  0.00000000E+00  0.00000000E+00  0.00000000E+00
  0.00000000E+00  0.00000000E+00  0.00000000E+00
  0.00000000E+00  0.00000000E+00  0.00000000E+00
  0.00000000E+00  0.00000000E+00  0.00000000E+00
  0.00000000E+00  0.00000000E+00  0.00000000E+00
  0.00000000E+00  0.00000000E+00  0.00000000E+00
  0.00000000E+00  0.00000000E+00  0.00000000E+00
  0.00000000E+00  0.00000000E+00  0.00000000E+00
  0.00000000E+00  0.00000000E+00  0.00000000E+00
  0.00000000E+00  0.00000000E+00  0.00000000E+00
  0.00000000E+00  0.00000000E+00  0.00000000E+00
  0.00000000E+00  0.00000000E+00  0.00000000E+00
  0.00000000E+00  0.00000000E+00  0.00000000E+00
  0.00000000E+00  0.00000000E+00  0.00000000E+00
  0.00000000E+00  0.00000000E+00  0.00000000E+00
  0.00000000E+00  0.00000000E+00  0.00000000E+00
  0.00000000E+00  0.00000000E+00  0.00000000E+00
  0.00000000E+00  0.00000000E+00  0.00000000E+00
  0.00000000E+00  0.00000000E+00  0.00000000E+00
  0.00000000E+00  0.00000000E+00  0.00000000E+00
  0.00000000E+00  0.00000000E+00  0.00000000E+00
  0.00000000E+00  0.00000000E+00  0.00000000E+00
  0.00000000E+00  0.00000000E+00  0.00000000E+00
  0.00000000E+00  0.00000000E+00  0.00000000E+00
  0.00000000E+00  0.00000000E+00  0.00000000E+00
  0.00000000E+00  0.00000000E+00  0.00000000E+00
  0.00000000E+00  0.00000000E+00  0.00000000E+00
  0.00000000E+00  0.00000000E+00  0.00000000E+00
  0.00000000E+00  0.00000000E+00  0.00000000E+00
  0.00000000E+00  0.00000000E+00  0.00000000E+00
  0.00000000E+00  0.00000000E+00  0.00000000E+00
  0.00000000E+00  0.00000000E+00  0.00000000E+00
  0.00000000E+00  0.00000000E+00  0.00000000E+00
  0.00000000E+00  0.00000000E+00  0.00000000E+00
  0.00000000E+00  0.00000000E+00  0.00000000E+00
  0.00000000E+00  0.00000000E+00  0.00000000E+00
  0.00000000E+00  0.00000000E+00  0.00000000E+00
  0.00000000E+00  0.00000000E+00  0.00000000E+00
  0.00000000E+00  0.00000000E+00  0.00000000E+00
  0.00000000E+00  0.00000000E+00  0.00000000E+00
  0.00000000E+00  0.00000000E+00  0.00000000E+00
  0.00000000E+00  0.00000000E+00  0.00000000E+00
  0.00000000E+00  0.00000000E+00  0.00000000E+00
  0.00000000E+00  0.00000000E+00  0.00000000E+00
  0.00000000E+00  0.00000000E+00  0.00000000E+00
  0.00000000E+00  0.00000000E+00  0.00000000E+00
  0.00000000E+00  0.00000000E+00  0.00000000E+00
  0.00000000E+00  0.00000000E+00  0.00000000E+00
  0.00000000E+00  0.00000000E+00  0.00000000E+00
  0.00000000E+00  0.00000000E+00  0.00000000E+00
  0.00000000E+00  0.00000000E+00  0.00000000E+00
  0.00000000E+00  0.00000000E+00  0.00000000E+00
  0.00000000E+00  0.00000000E+00  0.00000000E+00
  0.00000000E+00  0.00000000E+00  0.00000000E+00
  0.00000000E+00  0.00000000E+00  0.00000000E+00
  0.00000000E+00  0.00000000E+00  0.00000000E+00
  0.00000000E+00  0.00000000E+00  0.00000000E+00
  0.00000000E+00  0.00000000E+00  0.00000000E+00
  0.00000000E+00  0.00000000E+00  0.00000000E+00
  0.00000000E+00  0.00000000E+00  0.00000000E+00
  0.00000000E+00  0.00000000E+00  0.00000000E+00
  0.00000000E+00  0.00000000E+00  0.00000000E+00
  0.00000000E+00  0.00000000E+00  0.00000000E+00
  0.00000000E+00  0.00000000E+00  0.00000000E+00
  0.00000000E+00  0.00000000E+00  0.00000000E+00
  0.00000000E+00  0.00000000E+00  0.00000000E+00
  0.00000000E+00  0.00000000E+00  0.00000000E+00
  0.00000000E+00  0.00000000E+00  0.00000000E+00
  0.00000000E+00  0.00000000E+00  0.00000000E+00
  0.00000000E+00  0.00000000E+00  0.00000000E+00
  0.00000000E+00  0.00000000E+00  0.00000000E+00
  0.00000000E+00  0.00000000E+00  0.00000000E+00
  0.00000000E+00  0.00000000E+00  0.00000000E+00
  0.00000000E+00  0.00000000E+00  0.00000000E+00
  0.00000000E+00  0.00000000E+00  0.00000000E+00
  0.00000000E+00  0.00000000E+00  0.00000000E+00
  0.00000000E+00  0.00000000E+00  0.00000000E+00
  0.00000000E+00  0.00000000E+00  0.00000000E+00
  0.00000000E+00  0.00000000E+00  0.00000000E+00
  0.00000000E+00  0.00000000E+00  0.00000000E+00
  0.00000000E+00  0.00000000E+00  0.00000000E+00
  0.00000000E+00  0.00000000E+00  0.00000000E+00
  0.00000000E+00  0.00000000E+00  0.00000000E+00
  0.00000000E+00  0.00000000E+00  0.00000000E+00
  0.00000000E+00  0.00000000E+00  0.00000000E+00
  0.00000000E+00  0.00000000E+00  0.00000000E+00
  0.00000000E+00  0.00000000E+00  0.00000000E+00
  0.00000000E+00  0.00000000E+00  0.00000000E+00
  0.00000000E+00  0.00000000E+00  0.00000000E+00
  0.00000000E+00  0.00000000E+00  0.00000000E+00
  0.00000000E+00  0.00000000E+00  0.00000000E+00
  0.00000000E+00  0.00000000E+00  0.00000000E+00
  0.00000000E+00  0.00000000E+00  0.00000000E+00
  0.00000000E+00  0.00000000E+00  0.00000000E+00
  0.00000000E+00  0.00000000E+00  0.00000000E+00
  0.00000000E+00  0.00000000E+00  0.00000000E+00
  0.00000000E+00  0.00000000E+00  0.00000000E+00
  0.00000000E+00  0.00000000E+00  0.00000000E+00
  0.00000000E+00  0.00000000E+00  0.00000000E+00
  0.00000000E+00  0.00000000E+00  0.00000000E+00
  0.00000000E+00  0.00000000E+00  0.00000000E+00
  0.00000000E+00  0.00000000E+00  0.00000000E+00
  0.00000000E+00  0.00000000E+00  0.00000000E+00
  0.00000000E+00  0.00000000E+00  0.00000000E+00
  0.00000000E+00  0.00000000E+00  0.00000000E+00
  0.00000000E+00  0.00000000E+00  0.00000000E+00
  0.00000000E+00  0.00000000E+00  0.00000000E+00
  0.00000000E+00  0.00000000E+00  0.00000000E+00
  0.00000000E+00  0.00000000E+00  0.00000000E+00
  0.00000000E+00  0.00000000E+00  0.00000000E+00
  0.00000000E+00  0.00000000E+00  0.00000000E+00
  0.00000000E+00  0.00000000E+00  0.00000000E+00
  0.00000000E+00  0.00000000E+00  0.00000000E+00
  0.00000000E+00  0.00000000E+00  0.00000000E+00
  0.00000000E+00  0.00000000E+00  0.00000000E+00
  0.00000000E+00  0.00000000E+00  0.00000000E+00
  0.00000000E+00  0.00000000E+00  0.00000000E+00
  0.00000000E+00  0.00000000E+00  0.00000000E+00
  0.00000000E+00  0.00000000E+00  0.00000000E+00
  0.00000000E+00  0.00000000E+00  0.00000000E+00
  0.00000000E+00  0.00000000E+00  0.00000000E+00
  0.00000000E+00  0.00000000E+00  0.00000000E+00
  0.00000000E+00  0.00000000E+00  0.00000000E+00
  0.00000000E+00  0.00000000E+00  0.00000000E+00
  0.00000000E+00  0.00000000E+00  0.00000000E+00
  0.00000000E+00  0.00000000E+00  0.00000000E+00
  0.00000000E+00  0.00000000E+00  0.00000000E+00
  0.00000000E+00  0.00000000E+00  0.00000000E+00
  0.00000000E+00  0.00000000E+00  0.00000000E+00
  0.00000000E+00  0.00000000E+00  0.00000000E+00
  0.00000000E+00  0.00000000E+00  0.00000000E+00
  0.00000000E+00  0.00000000E+00  0.00000000E+00
  0.00000000E+00  0.00000000E+00  0.00000000E+00
  0.00000000E+00  0.00000000E+00  0.00000000E+00
  0.00000000E+00  0.00000000E+00  0.00000000E+00
  0.00000000E+00  0.00000000E+00  0.00000000E+00
  0.00000000E+00  0.00000000E+00  0.00000000E+00
  0.00000000E+00  0.00000000E+00  0.00000000E+00
  0.00000000E+00  0.00000000E+00  0.00000000E+00
  0.00000000E+00  0.00000000E+00  0.00000000E+00
  0.00000000E+00  0.00000000E+00  0.00000000E+00
  0.00000000E+00  0.00000000E+00  0.00000000E+00
  0.00000000E+00  0.00000000E+00  0.00000000E+00
  0.00000000E+00  0.00000000E+00  0.00000000E+00
  0.00000000E+00  0.00000000E+00  0.00000000E+00
  0.00000000E+00  0.00000000E+00  0.00000000E+00
  0.00000000E+00  0.00000000E+00  0.00000000E+00
  0.00000000E+00  0.00000000E+00  0.00000000E+00
  0.00000000E+00  0.00000000E+00  0.00000000E+00
  0.00000000E+00  0.00000000E+00  0.00000000E+00
  0.00000000E+00  0.00000000E+00  0.00000000E+00
  0.00000000E+00  0.00000000E+00  0.00000000E+00
  0.00000000E+00  0.00000000E+00  0.00000000E+00
  0.00000000E+00  0.00000000E+00  0.00000000E+00
  0.00000000E+00  0.00000000E+00  0.00000000E+00
  0.00000000E+00  0.00000000E+00  0.00000000E+00
  0.00000000E+00  0.00000000E+00  0.00000000E+00