O  Si Ru C  H                           
   1.00000000000000     
    20.3096463179830877    0.0000000000000000    0.0000000000000000
     0.0000000000000000   19.8625212307842212    0.0000000000000000
     0.0000000000000000    0.0000000000000000   13.3711533343531652
   O    Si   Ru   C    H 
   192    96     3     2     6
Selective dynamics
Direct
  0.5028863669583856  0.0734972442435975  0.7055913014752306   F   F   F
  0.9969093901809458  0.5699550561368341  0.2102943030202340   F   F   F
  0.5029028012536543  0.4263117906409022  0.7057407722851110   F   F   F
  0.9971917620141397  0.9296923950936957  0.2098226244453585   F   F   F
  0.4974736106974476  0.9258048805367167  0.2919495308741702   F   F   F
  0.0035147367029751  0.4285655010316916  0.7895114472871114   F   F   F
  0.4977252245650732  0.5737530996143860  0.2919714890913809   F   F   F
  0.0034583973285010  0.0712734862584554  0.7895327006424893   F   F   F
  0.3888959120167073  0.0657889684073538  0.7983032165508703   F   F   F
  0.1124932371433616  0.5673124377117063  0.2978605759087927   F   F   F
  0.3889755319666577  0.4343197512310368  0.7986185681306566   F   F   F
  0.1129005634082532  0.9326249849865960  0.2976157026478106   F   F   F
  0.6113102771911656  0.9353256089077462  0.1995410567132083   F   F   F
  0.8875973857242059  0.4318262974070919  0.7021766283158541   F   F   F
  0.6114015726619684  0.5651644726570169  0.1992773628108537   F   F   F
  0.8875937812004437  0.0681989208615192  0.7021019381946729   F   F   F
  0.4001543638794942  0.1395942548046207  0.6348184388740918   F   F   F
  0.0961712840011160  0.6385341299803642  0.1335998468970843   F   F   F
  0.4000591252741401  0.3600499431650306  0.6350762525233051   F   F   F
  0.0973027294128030  0.8615155792543163  0.1329123318847891   F   F   F
  0.6020430537872841  0.8631085054644956  0.3644194951182698   F   F   F
  0.9036789377637433  0.3610647643742055  0.8674413250513169   F   F   F
  0.6022341826977282  0.6366645612868496  0.3649021380015824   F   F   F
  0.9037795956523880  0.1389403221002041  0.8673699226517400   F   F   F
  0.4051612514380381  0.0058054884581864  0.6212292682400005   F   F   F
  0.0958721230037938  0.5043676475895680  0.1237498723268118   F   F   F
  0.4049272575978762  0.4937414821656674  0.6215900992173076   F   F   F
  0.0958535282916344  0.9958408470524844  0.1235683094760631   F   F   F
  0.5940668100081865  0.9968821145788667  0.3736806456591140   F   F   F
  0.9056428031506343  0.4955215956898655  0.8757015745251309   F   F   F
  0.5943422698097933  0.5027509906240653  0.3733853630321633   F   F   F
  0.9055421523220630  0.0045577003388360  0.8756502332110614   F   F   F
  0.3235120070306934  0.0391084037133425  0.9645465733809857   F   F   F
  0.1758464285646895  0.5376797889689939  0.4650856502879535   F   F   F
  0.3235623428518792  0.4606132496829503  0.9646659870712071   F   F   F
  0.1757802774061190  0.9627412540932312  0.4650653300711411   F   F   F
  0.6780254907186674  0.9622059764111555  0.0348276903487843   F   F   F
  0.8239436430136493  0.4615811989207330  0.5351468642479418   F   F   F
  0.6780917510458266  0.5377767167063965  0.0346883458963845   F   F   F
  0.8238416628232343  0.0384198447400621  0.5351868112876730   F   F   F
  0.3189047914415966  0.9542807005645599  0.8083952051813625   F   F   F
  0.1787544797908609  0.4538561554860507  0.3065041392686254   F   F   F
  0.3186970299607950  0.5457365247948331  0.8085279129735596   F   F   F
  0.1788038085905228  0.0462383704167237  0.3065681306014625   F   F   F
  0.6820436355648027  0.0465563622711684  0.1919810010826524   F   F   F
  0.8214322829081766  0.5455334428047962  0.6930939364092410   F   F   F
  0.6818485427412639  0.4536108991997949  0.1920402593677935   F   F   F
  0.8213073140870080  0.9545323076231114  0.6931915319028903   F   F   F
  0.2577440888682005  0.0709450489228587  0.8008385300447358   F   F   F
  0.2440232540145004  0.5685796164901618  0.3035254061342840   F   F   F
  0.2576500939818445  0.4289852658798736  0.8009330309390919   F   F   F
  0.2444345486876216  0.9317440450945540  0.3045550825971404   F   F   F
  0.7424922057650392  0.9294661175728578  0.1993322667173700   F   F   F
  0.7561850759291602  0.4303300558324921  0.6970183149197098   F   F   F
  0.7425487063529417  0.5705578141641965  0.1994190670987805   F   F   F
  0.7561599748109984  0.0698035481127519  0.6970002011141645   F   F   F
  0.2917523904347874  0.1260368587023066  0.1065461768604763   F   F   F
  0.2087815123570067  0.6246295301451639  0.6066663644353341   F   F   F
  0.2918886042904418  0.3741977099336182  0.1071699036537623   F   F   F
  0.2077949100454148  0.8755940296471181  0.6062816986236967   F   F   F
  0.7091396280720232  0.8735940111337612  0.8949117146221468   F   F   F
  0.7912613428756217  0.3755194234973658  0.3928266514095284   F   F   F
  0.7092431355863411  0.6265088068656581  0.8951295950733922   F   F   F
  0.7912528352171861  0.1244713889195452  0.3928188245486055   F   F   F
  0.2000249450549134  0.0447323495770036  0.0273655579983156   F   F   F
  0.2990397831992055  0.5414143483586074  0.5288399055136068   F   F   F
  0.2000363724048455  0.4552596985901047  0.0273759152067115   F   F   F
  0.2988768919765690  0.9583811481156772  0.5294572836602498   F   F   F
  0.8012946308894371  0.9554166603430829  0.9711860363128864   F   F   F
  0.7009466128561215  0.4592437214182041  0.4691782660795738   F   F   F
  0.8012906306727317  0.5445903412057191  0.9710850562641085   F   F   F
  0.7008428728761942  0.0407867791774024  0.4689919707405323   F   F   F
  0.2933214686893209  0.9960608437480545  0.1462032758298761   F   F   F
  0.2040612453060859  0.4948390869931956  0.6473999762511440   F   F   F
  0.2932134241927145  0.5047162284764113  0.1444554782164928   F   F   F
  0.2039512527012306  0.0053969809114847  0.6475274674800886   F   F   F
  0.7072024297574018  0.0028622062065367  0.8522908050871365   F   F   F
  0.7970973257366865  0.5056712911675234  0.3531500645613050   F   F   F
  0.7071882489884516  0.4973288944925685  0.8521572097454921   F   F   F
  0.7971625823360426  0.9943198197763081  0.3530125704083318   F   F   F
  0.1087133821158659  0.1280472022720218  0.0975324825419008   F   F   F
  0.3886282554079443  0.6249736170920031  0.6043667248106459   F   F   F
  0.1086987798426122  0.3719858528350599  0.0977590694568633   F   F   F
  0.3889324192353385  0.8743695008532981  0.6022513470018183   F   F   F
  0.8930550450229546  0.8724050091277178  0.9011633203695766   F   F   F
  0.6104823153556822  0.3719547753825907  0.4053762995638976   F   F   F
  0.8931562884283650  0.6277278137822080  0.9011528203697736   F   F   F
  0.6103682261564813  0.1277005078487790  0.4052789324176373   F   F   F
  0.0809022440937284  0.0483038416698491  0.9453216677929817   F   F   F
  0.4175712781866636  0.5501788990969558  0.4456883376741132   F   F   F
  0.0807445576621149  0.4517449733472816  0.9451887580488503   F   F   F
  0.4168041114746970  0.9497694287493914  0.4441409462840795   F   F   F
  0.9200052323420920  0.9519431867212376  0.0540178873683601   F   F   F
  0.5830528356279956  0.4548281798219733  0.5548097968239176   F   F   F
  0.9199831755388033  0.5482573551260543  0.0541680812415066   F   F   F
  0.5830708964640223  0.0452384287954928  0.5550458777587082   F   F   F
  0.1302811693974419  0.0807408280504021  0.7672337059922754   F   F   F
  0.3708777378738901  0.5771124099839540  0.2618400627600295   F   F   F
  0.1302816759525811  0.4193887811224570  0.7671140868841348   F   F   F
  0.3705944351695436  0.9215717459155286  0.2604239077967208   F   F   F
  0.8702033234401227  0.9190963490751685  0.2319345989234947   F   F   F
  0.6290518094245527  0.4250362780886192  0.7356816057366444   F   F   F
  0.8700114262116827  0.5809867198824108  0.2321104057301753   F   F   F
  0.6288647570900423  0.0748585746392294  0.7356824208400425   F   F   F
  0.0773194434683475  0.9606761331619609  0.7944253454509749   F   F   F
  0.4271173716540773  0.4613256996379960  0.2970532268076553   F   F   F
  0.0770753581337686  0.5393809590204981  0.7943669921558296   F   F   F
  0.4274788959495197  0.0385932404750449  0.2968331378496600   F   F   F
  0.9220401588231155  0.0394460168114108  0.2054009298608364   F   F   F
  0.5685923500890055  0.5419859856904239  0.7042823438491794   F   F   F
  0.9217274836218081  0.4605792209663306  0.2052429001839826   F   F   F
  0.5683239228280215  0.9578949743658924  0.7043602077581639   F   F   F
  0.2140513474821262  0.1394228527373969  0.6476778468320106   F   F   F
  0.2851403204515890  0.6397531522947020  0.1507797354632174   F   F   F
  0.2140704093843055  0.3606036491525231  0.6478183970725198   F   F   F
  0.2821050541719714  0.8627392465531116  0.1485366490407500   F   F   F
  0.7867786715010681  0.8601361261499036  0.3517513405700328   F   F   F
  0.7124592818609230  0.3627440949954064  0.8521393772488466   F   F   F
  0.7863761419473079  0.6397532356627238  0.3520102830874805   F   F   F
  0.7124060450586640  0.1374368907599433  0.8520017258161232   F   F   F
  0.4988271200595875  0.8446402098748322  0.7064840627912048   F   F   F
  0.0027698261101463  0.3559971310857009  0.2143917465399809   F   F   F
  0.4987100793112447  0.6548244640325365  0.7081021458240429   F   F   F
  0.0028266242586312  0.1441864638683654  0.2143163222407836   F   F   F
  0.5032905771651883  0.1469511333985736  0.2905881656787415   F   F   F
  0.9988232634382754  0.6461362156046633  0.7839919942884634   F   F   F
  0.5033193090564012  0.3530741870549079  0.2907556965722051   F   F   F
  0.9986969576672422  0.8541416710676231  0.7836901895733419   F   F   F
  0.3840909399979822  0.8382963097414518  0.7942532851695958   F   F   F
  0.1197932219253843  0.3350084652029963  0.2890735501007100   F   F   F
  0.3839688128810508  0.6619294190797405  0.7959123873258989   F   F   F
  0.1199120770584088  0.1650494150202420  0.2889578811479936   F   F   F
  0.6200598817691159  0.1635839090265634  0.2128837206923677   F   F   F
  0.8814092708608499  0.6639185031359034  0.7095017828665604   F   F   F
  0.6199444766463884  0.3364467649988754  0.2129998376878888   F   F   F
  0.8813796050034455  0.8361290117385565  0.7095510487522532   F   F   F
  0.4136822343551856  0.7493652524018088  0.6507169262660142   F   F   F
  0.0730245964139726  0.2500480361998996  0.1529230752337369   F   F   F
  0.5775516830536631  0.2499953301415800  0.3505519711384650   F   F   F
  0.9262925722875934  0.7500725839315905  0.8457922268302553   F   F   F
  0.3158157205938394  0.8664970468348301  0.9569106536736314   F   F   F
  0.1829039879892633  0.3674224855316481  0.4557763811604261   F   F   F
  0.3153433717096235  0.6326550904811015  0.9581258792256975   F   F   F
  0.1829448838058525  0.1327827308441556  0.4556703996573788   F   F   F
  0.6824903019165589  0.1351404800756058  0.0447148052043005   F   F   F
  0.8170649483070562  0.6319521232379941  0.5438423006213995   F   F   F
  0.6825020985812529  0.3650319060232263  0.0448051689247464   F   F   F
  0.8172121564841959  0.8680673180127698  0.5439198134424501   F   F   F
  0.2535879557089800  0.8400393501428596  0.7866118991228461   F   F   F
  0.2502640941420111  0.3425389719899030  0.2900457834590640   F   F   F
  0.2531220262666949  0.6603105745582667  0.7877486492514620   F   F   F
  0.2502106306951717  0.1575580340674918  0.2898559010671491   F   F   F
  0.7505790924118259  0.1593862067590592  0.2098787326353815   F   F   F
  0.7509652691241371  0.6569585312923039  0.7107880170864576   F   F   F
  0.7505903760495158  0.3407744348011477  0.2099285698244486   F   F   F
  0.7509457737169214  0.8429919668743509  0.7106056304683790   F   F   F
  0.2955490099824374  0.7504188401292140  0.0481025778898072   F   F   F
  0.2022090679823876  0.2499739930258897  0.5429854882231453   F   F   F
  0.7052433172427257  0.2500285916638276  0.9514325426412853   F   F   F
  0.8005038718483917  0.7500223622705704  0.4574078504303287   F   F   F
  0.1947529253561697  0.8315865083650209  0.0077539876929507   F   F   F
  0.3033168768345575  0.3323828580190238  0.5083784460234426   F   F   F
  0.1946435864059310  0.6671944997467918  0.0110242216866538   F   F   F
  0.3032309578729695  0.1677731588601574  0.5082340606059716   F   F   F
  0.8036220862618393  0.1646635368424541  0.9888812823923061   F   F   F
  0.6977492387048585  0.6698323105284274  0.4908569946424706   F   F   F
  0.8036090848027939  0.3354161863462437  0.9889599102570656   F   F   F
  0.6977937815094393  0.8305743447215761  0.4903130336312245   F   F   F
  0.0918091219213153  0.7500142937077001  0.0255245212377986   F   F   F
  0.4062660034213792  0.2500479158432043  0.5243475263851778   F   F   F
  0.9046066372161334  0.2499789955210687  0.9753300420497624   F   F   F
  0.5952095617272235  0.7499422397294424  0.4662650257588510   F   F   F
  0.0792987292377347  0.8691913684115207  0.9376887839991710   F   F   F
  0.4189160150433437  0.3698404695723028  0.4393852629947759   F   F   F
  0.0799877945294440  0.6308802678358063  0.9372129757439609   F   F   F
  0.4187645523213916  0.1300456397153908  0.4390433654101713   F   F   F
  0.9190438752616856  0.1316480494844043  0.0636991774045441   F   F   F
  0.5834568651454433  0.6323902669500043  0.5611481497859501   F   F   F
  0.9190857318383152  0.3683331936088337  0.0637675724559230   F   F   F
  0.5838798155207527  0.8682197391221180  0.5607910480618088   F   F   F
  0.1254214511558942  0.8399799493165574  0.7543850224984396   F   F   F
  0.3774585866662505  0.3420671498438210  0.2526899711375492   F   F   F
  0.1254115575598291  0.6597964489398009  0.7535498591831455   F   F   F
  0.3773223436087605  0.1578486583990326  0.2522684727669002   F   F   F
  0.8774146951816348  0.1607138706882481  0.2499553341367360   F   F   F
  0.6241926761188950  0.6588291579211045  0.7487402411410571   F   F   F
  0.8773799462821685  0.3392634783440158  0.2498958634882058   F   F   F
  0.6241367787630239  0.8410958732323834  0.7484154947708177   F   F   F
  0.2006335857936463  0.7500438942746186  0.6644467183459710   F   F   F
  0.3011982636651851  0.2500669881794693  0.1691785801776362   F   F   F
  0.7993342707688385  0.2499829717235187  0.3356924636194236   F   F   F
  0.7012462458052582  0.7500458613102339  0.8317390618989933   F   F   F
  0.4240889760792399  0.0706427338996036  0.6890139947094838   F   F   F
  0.0754719877870684  0.5695399228363414  0.1902975284656776   F   F   F
  0.4241380823801677  0.4289018498289465  0.6892452637998687   F   F   F
  0.0758720584587920  0.9303129296106860  0.1899163645637003   F   F   F
  0.5759890804238523  0.9308061421511837  0.3086725589076167   F   F   F
  0.9249033469771675  0.4295796350846572  0.8095624209600913   F   F   F
  0.5765665013117456  0.5691757913002533  0.3087511306736204   F   F   F
  0.9249397014205911  0.0703660521197875  0.8095047631476859   F   F   F
  0.3222337113459233  0.0325097802708143  0.8438369372520924   F   F   F
  0.1777648227794657  0.5318375764294743  0.3444397035181908   F   F   F
  0.3221758974600277  0.4675314750533275  0.8437907839231613   F   F   F
  0.1781157015844670  0.9682927304688604  0.3444437501031103   F   F   F
  0.6786907902820261  0.9685133237441548  0.1557745549415586   F   F   F
  0.8221171646457890  0.4673322277736744  0.6559919067383362   F   F   F
  0.6785796118006715  0.5316089930844257  0.1555594002627387   F   F   F
  0.8220800796732135  0.0327562701046276  0.6559496452719600   F   F   F
  0.2768372485287856  0.0514771308301931  0.0620161273184650   F   F   F
  0.2223776590047279  0.5499754863342332  0.5625646386748642   F   F   F
  0.2767102963610242  0.4482160386655281  0.0613821769587091   F   F   F
  0.2222320862365876  0.9502283117035759  0.5625239225222955   F   F   F
  0.7243387426991816  0.9484265862705712  0.9380144352673696   F   F   F
  0.7778033580053858  0.4503187738993759  0.4374042803930180   F   F   F
  0.7243401864581784  0.5516324078058403  0.9379985941648030   F   F   F
  0.7778303102145472  0.0496341360619894  0.4371605019876696   F   F   F
  0.1217131516951824  0.0542232727368841  0.0489067258807978   F   F   F
  0.3770034102340531  0.5528012691569231  0.5494701167802418   F   F   F
  0.1216522955980182  0.4457973888451434  0.0488446626780004   F   F   F
  0.3770812852202354  0.9468859964983949  0.5486935576353460   F   F   F
  0.8796112365343589  0.9459734782990381  0.9501264682516464   F   F   F
  0.6226489276336977  0.4469080859778600  0.4507028819487147   F   F   F
  0.8796313117794483  0.5539811606562353  0.9500334179236702   F   F   F
  0.6226206937764260  0.0527973657758238  0.4506489799782898   F   F   F
  0.0730954369692824  0.0397059920655138  0.8250848452748301   F   F   F
  0.4280371932028473  0.5409859418489020  0.3259292845338280   F   F   F
  0.0729758437693206  0.4602658938226654  0.8250063106414345   F   F   F
  0.4276746277809096  0.9587290378963118  0.3250686219739549   F   F   F
  0.9273578457795111  0.9605510321418436  0.1744050701245001   F   F   F
  0.5712563799245416  0.4628296917535693  0.6740464401655402   F   F   F
  0.9269602109248680  0.5393839440989652  0.1744671136770890   F   F   F
  0.5712148807701638  0.0370602313791366  0.6742440959137284   F   F   F
  0.2015476020715568  0.0730184204326463  0.7144905977332030   F   F   F
  0.2980784873802449  0.5710478374804921  0.2145138278162193   F   F   F
  0.2015772416033812  0.4270046145728088  0.7144169915481413   F   F   F
  0.2981731154735030  0.9284265071094566  0.2141652006761419   F   F   F
  0.7989914186913225  0.9267081780637483  0.2852061069091008   F   F   F
  0.7013224881863778  0.4295109969191770  0.7850374290488205   F   F   F
  0.7987926508512331  0.5732527656015449  0.2853999084520566   F   F   F
  0.7013471673767881  0.0706210229192124  0.7851899614164140   F   F   F
  0.4220863116235591  0.8276557949936816  0.6877204398602146   F   F   F
  0.0757829733227098  0.3282946199401664  0.1879835661939211   F   F   F
  0.4221231557548819  0.6719436881189012  0.6896414459517004   F   F   F
  0.0758875984668919  0.1717207025048992  0.1879393760548567   F   F   F
  0.5773547787531967  0.1717071056968891  0.3152965220861006   F   F   F
  0.9251473233349401  0.6719040750760286  0.8107337328569670   F   F   F
  0.5775059692186559  0.3281161971760582  0.3154489420141360   F   F   F
  0.9251446844408591  0.8283626224310581  0.8107010184213266   F   F   F
  0.3178795146668350  0.8746055551864416  0.8367972908936565   F   F   F
  0.1828668839745831  0.3744878357013377  0.3348929367344269   F   F   F
  0.3175239029947079  0.6253010784386319  0.8369599311927800   F   F   F
  0.1828448212654052  0.1255796681980144  0.3348389021943348   F   F   F
  0.6836152084471436  0.1262551693172753  0.1653683073267871   F   F   F
  0.8178018913784015  0.6247231483606441  0.6645706261442896   F   F   F
  0.6835730133320581  0.3738794399993992  0.1654437667316770   F   F   F
  0.8177821208319358  0.8753025208683241  0.6646454773967250   F   F   F
  0.2717287925086254  0.8277681145257034  0.0400213879497286   F   F   F
  0.2262508850175848  0.3275314248051941  0.5390548584818546   F   F   F
  0.2722190825285722  0.6724999718583078  0.0413990571777134   F   F   F
  0.2261294705640680  0.1724902674858555  0.5390167085555930   F   F   F
  0.7264319197132565  0.1718902335183472  0.9589539984773126   F   F   F
  0.7752640271068358  0.6728994885080297  0.4604851430812076   F   F   F
  0.7264228579118495  0.3281933498230245  0.9590960555510577   F   F   F
  0.7754804891548233  0.8271718281400027  0.4601940288791795   F   F   F
  0.1161092246704882  0.8279152525145079  0.0263381820515107   F   F   F
  0.3819701475042905  0.3278528053295275  0.5270185227799900   F   F   F
  0.1156112609632416  0.6720473495258972  0.0272663312504022   F   F   F
  0.3821006329814054  0.1720829261063486  0.5267742100816832   F   F   F
  0.8824955652639304  0.1715832023841628  0.9736323615750706   F   F   F
  0.6191833076731825  0.6723893000766452  0.4710596459471219   F   F   F
  0.8824746047069354  0.3283988064636674  0.9736654194242362   F   F   F
  0.6193682316298705  0.8278825515521717  0.4708974276666495   F   F   F
  0.0707104143849762  0.8808802203013855  0.8175974241952844   F   F   F
  0.4313055894617364  0.3813348813037365  0.3204415577305326   F   F   F
  0.0708627333919551  0.6193011529547903  0.8175375505162563   F   F   F
  0.4312338687835151  0.1182145852349805  0.3200004833083057   F   F   F
  0.9299362910195583  0.1192291239964547  0.1828718441893855   F   F   F
  0.5691643715470605  0.6218844504376833  0.6800433392466658   F   F   F
  0.9298246779354002  0.3807329399814421  0.1828201031830403   F   F   F
  0.5692522114733549  0.8781009660213925  0.6794704701263470   F   F   F
  0.1969226404974194  0.8274107431326385  0.7027232830298829   F   F   F
  0.3054319095230085  0.3278917816573355  0.2048951257051996   F   F   F
  0.1970748945924043  0.6727544571885105  0.7030693599892857   F   F   F
  0.3053646274214614  0.1719815848380293  0.2046624154732442   F   F   F
  0.8046651744085338  0.1727050347350243  0.2972697934025277   F   F   F
  0.6962276844553728  0.6721910239333440  0.7962340296358121   F   F   F
  0.8046763533839538  0.3272342293569892  0.2972437502230960   F   F   F
  0.6961194546943261  0.8279056407566401  0.7960335129600651   F   F   F
  0.4717335406340410  0.7535741212892404  0.3137157708861906   F   F   F
  0.3528302499444038  0.7310858243403047  0.2844348528477525   F   F   F
  0.3942585655552477  0.7411450096090419  0.4497427878118785   F   F   F
  0.4870327927232836  0.7326962420253693  0.1525247704444013   T   T   T
  0.5485802602586745  0.7712953305430190  0.1269728351851498   T   T   T
  0.5674483988249435  0.7536814346390983  0.0543487676580625   T   T   T
  0.4936772270911618  0.6785701669084432  0.1601807738196328   T   T   T
  0.5896242593795478  0.7648385115001304  0.1807342627436270   T   T   T
  0.5401597552039163  0.8256321946918490  0.1176642722125081   T   T   T
  0.4508255862677473  0.7372305867614770  0.0909161792915043   T   T   T
  0.4298441362100718  0.7628292434156378  0.2080904871792583   T   T   T
 
  0.00000000E+00  0.00000000E+00  0.00000000E+00
  0.00000000E+00  0.00000000E+00  0.00000000E+00
  0.00000000E+00  0.00000000E+00  0.00000000E+00
  0.00000000E+00  0.00000000E+00  0.00000000E+00
  0.00000000E+00  0.00000000E+00  0.00000000E+00
  0.00000000E+00  0.00000000E+00  0.00000000E+00
  0.00000000E+00  0.00000000E+00  0.00000000E+00
  0.00000000E+00  0.00000000E+00  0.00000000E+00
  0.00000000E+00  0.00000000E+00  0.00000000E+00
  0.00000000E+00  0.00000000E+00  0.00000000E+00
  0.00000000E+00  0.00000000E+00  0.00000000E+00
  0.00000000E+00  0.00000000E+00  0.00000000E+00
  0.00000000E+00  0.00000000E+00  0.00000000E+00
  0.00000000E+00  0.00000000E+00  0.00000000E+00
  0.00000000E+00  0.00000000E+00  0.00000000E+00
  0.00000000E+00  0.00000000E+00  0.00000000E+00
  0.00000000E+00  0.00000000E+00  0.00000000E+00
  0.00000000E+00  0.00000000E+00  0.00000000E+00
  0.00000000E+00  0.00000000E+00  0.00000000E+00
  0.00000000E+00  0.00000000E+00  0.00000000E+00
  0.00000000E+00  0.00000000E+00  0.00000000E+00
  0.00000000E+00  0.00000000E+00  0.00000000E+00
  0.00000000E+00  0.00000000E+00  0.00000000E+00
  0.00000000E+00  0.00000000E+00  0.00000000E+00
  0.00000000E+00  0.00000000E+00  0.00000000E+00
  0.00000000E+00  0.00000000E+00  0.00000000E+00
  0.00000000E+00  0.00000000E+00  0.00000000E+00
  0.00000000E+00  0.00000000E+00  0.00000000E+00
  0.00000000E+00  0.00000000E+00  0.00000000E+00
  0.00000000E+00  0.00000000E+00  0.00000000E+00
  0.00000000E+00  0.00000000E+00  0.00000000E+00
  0.00000000E+00  0.00000000E+00  0.00000000E+00
  0.00000000E+00  0.00000000E+00  0.00000000E+00
  0.00000000E+00  0.00000000E+00  0.00000000E+00
  0.00000000E+00  0.00000000E+00  0.00000000E+00
  0.00000000E+00  0.00000000E+00  0.00000000E+00
  0.00000000E+00  0.00000000E+00  0.00000000E+00
  0.00000000E+00  0.00000000E+00  0.00000000E+00
  0.00000000E+00  0.00000000E+00  0.00000000E+00
  0.00000000E+00  0.00000000E+00  0.00000000E+00
  0.00000000E+00  0.00000000E+00  0.00000000E+00
  0.00000000E+00  0.00000000E+00  0.00000000E+00
  0.00000000E+00  0.00000000E+00  0.00000000E+00
  0.00000000E+00  0.00000000E+00  0.00000000E+00
  0.00000000E+00  0.00000000E+00  0.00000000E+00
  0.00000000E+00  0.00000000E+00  0.00000000E+00
  0.00000000E+00  0.00000000E+00  0.00000000E+00
  0.00000000E+00  0.00000000E+00  0.00000000E+00
  0.00000000E+00  0.00000000E+00  0.00000000E+00
  0.00000000E+00  0.00000000E+00  0.00000000E+00
  0.00000000E+00  0.00000000E+00  0.00000000E+00
  0.00000000E+00  0.00000000E+00  0.00000000E+00
  0.00000000E+00  0.00000000E+00  0.00000000E+00
  0.00000000E+00  0.00000000E+00  0.00000000E+00
  0.00000000E+00  0.00000000E+00  0.00000000E+00
  0.00000000E+00  0.00000000E+00  0.00000000E+00
  0.00000000E+00  0.00000000E+00  0.00000000E+00
  0.00000000E+00  0.00000000E+00  0.00000000E+00
  0.00000000E+00  0.00000000E+00  0.00000000E+00
  0.00000000E+00  0.00000000E+00  0.00000000E+00
  0.00000000E+00  0.00000000E+00  0.00000000E+00
  0.00000000E+00  0.00000000E+00  0.00000000E+00
  0.00000000E+00  0.00000000E+00  0.00000000E+00
  0.00000000E+00  0.00000000E+00  0.00000000E+00
  0.00000000E+00  0.00000000E+00  0.00000000E+00
  0.00000000E+00  0.00000000E+00  0.00000000E+00
  0.00000000E+00  0.00000000E+00  0.00000000E+00
  0.00000000E+00  0.00000000E+00  0.00000000E+00
  0.00000000E+00  0.00000000E+00  0.00000000E+00
  0.00000000E+00  0.00000000E+00  0.00000000E+00
  0.00000000E+00  0.00000000E+00  0.00000000E+00
  0.00000000E+00  0.00000000E+00  0.00000000E+00
  0.00000000E+00  0.00000000E+00  0.00000000E+00
  0.00000000E+00  0.00000000E+00  0.00000000E+00
  0.00000000E+00  0.00000000E+00  0.00000000E+00
  0.00000000E+00  0.00000000E+00  0.00000000E+00
  0.00000000E+00  0.00000000E+00  0.00000000E+00
  0.00000000E+00  0.00000000E+00  0.00000000E+00
  0.00000000E+00  0.00000000E+00  0.00000000E+00
  0.00000000E+00  0.00000000E+00  0.00000000E+00
  0.00000000E+00  0.00000000E+00  0.00000000E+00
  0.00000000E+00  0.00000000E+00  0.00000000E+00
  0.00000000E+00  0.00000000E+00  0.00000000E+00
  0.00000000E+00  0.00000000E+00  0.00000000E+00
  0.00000000E+00  0.00000000E+00  0.00000000E+00
  0.00000000E+00  0.00000000E+00  0.00000000E+00
  0.00000000E+00  0.00000000E+00  0.00000000E+00
  0.00000000E+00  0.00000000E+00  0.00000000E+00
  0.00000000E+00  0.00000000E+00  0.00000000E+00
  0.00000000E+00  0.00000000E+00  0.00000000E+00
  0.00000000E+00  0.00000000E+00  0.00000000E+00
  0.00000000E+00  0.00000000E+00  0.00000000E+00
  0.00000000E+00  0.00000000E+00  0.00000000E+00
  0.00000000E+00  0.00000000E+00  0.00000000E+00
  0.00000000E+00  0.00000000E+00  0.00000000E+00
  0.00000000E+00  0.00000000E+00  0.00000000E+00
  0.00000000E+00  0.00000000E+00  0.00000000E+00
  0.00000000E+00  0.00000000E+00  0.00000000E+00
  0.00000000E+00  0.00000000E+00  0.00000000E+00
  0.00000000E+00  0.00000000E+00  0.00000000E+00
  0.00000000E+00  0.00000000E+00  0.00000000E+00
  0.00000000E+00  0.00000000E+00  0.00000000E+00
  0.00000000E+00  0.00000000E+00  0.00000000E+00
  0.00000000E+00  0.00000000E+00  0.00000000E+00
  0.00000000E+00  0.00000000E+00  0.00000000E+00
  0.00000000E+00  0.00000000E+00  0.00000000E+00
  0.00000000E+00  0.00000000E+00  0.00000000E+00
  0.00000000E+00  0.00000000E+00  0.00000000E+00
  0.00000000E+00  0.00000000E+00  0.00000000E+00
  0.00000000E+00  0.00000000E+00  0.00000000E+00
  0.00000000E+00  0.00000000E+00  0.00000000E+00
  0.00000000E+00  0.00000000E+00  0.00000000E+00
  0.00000000E+00  0.00000000E+00  0.00000000E+00
  0.00000000E+00  0.00000000E+00  0.00000000E+00
  0.00000000E+00  0.00000000E+00  0.00000000E+00
  0.00000000E+00  0.00000000E+00  0.00000000E+00
  0.00000000E+00  0.00000000E+00  0.00000000E+00
  0.00000000E+00  0.00000000E+00  0.00000000E+00
  0.00000000E+00  0.00000000E+00  0.00000000E+00
  0.00000000E+00  0.00000000E+00  0.00000000E+00
  0.00000000E+00  0.00000000E+00  0.00000000E+00
  0.00000000E+00  0.00000000E+00  0.00000000E+00
  0.00000000E+00  0.00000000E+00  0.00000000E+00
  0.00000000E+00  0.00000000E+00  0.00000000E+00
  0.00000000E+00  0.00000000E+00  0.00000000E+00
  0.00000000E+00  0.00000000E+00  0.00000000E+00
  0.00000000E+00  0.00000000E+00  0.00000000E+00
  0.00000000E+00  0.00000000E+00  0.00000000E+00
  0.00000000E+00  0.00000000E+00  0.00000000E+00
  0.00000000E+00  0.00000000E+00  0.00000000E+00
  0.00000000E+00  0.00000000E+00  0.00000000E+00
  0.00000000E+00  0.00000000E+00  0.00000000E+00
  0.00000000E+00  0.00000000E+00  0.00000000E+00
  0.00000000E+00  0.00000000E+00  0.00000000E+00
  0.00000000E+00  0.00000000E+00  0.00000000E+00
  0.00000000E+00  0.00000000E+00  0.00000000E+00
  0.00000000E+00  0.00000000E+00  0.00000000E+00
  0.00000000E+00  0.00000000E+00  0.00000000E+00
  0.00000000E+00  0.00000000E+00  0.00000000E+00
  0.00000000E+00  0.00000000E+00  0.00000000E+00
  0.00000000E+00  0.00000000E+00  0.00000000E+00
  0.00000000E+00  0.00000000E+00  0.00000000E+00
  0.00000000E+00  0.00000000E+00  0.00000000E+00
  0.00000000E+00  0.00000000E+00  0.00000000E+00
  0.00000000E+00  0.00000000E+00  0.00000000E+00
  0.00000000E+00  0.00000000E+00  0.00000000E+00
  0.00000000E+00  0.00000000E+00  0.00000000E+00
  0.00000000E+00  0.00000000E+00  0.00000000E+00
  0.00000000E+00  0.00000000E+00  0.00000000E+00
  0.00000000E+00  0.00000000E+00  0.00000000E+00
  0.00000000E+00  0.00000000E+00  0.00000000E+00
  0.00000000E+00  0.00000000E+00  0.00000000E+00
  0.00000000E+00  0.00000000E+00  0.00000000E+00
  0.00000000E+00  0.00000000E+00  0.00000000E+00
  0.00000000E+00  0.00000000E+00  0.00000000E+00
  0.00000000E+00  0.00000000E+00  0.00000000E+00
  0.00000000E+00  0.00000000E+00  0.00000000E+00
  0.00000000E+00  0.00000000E+00  0.00000000E+00
  0.00000000E+00  0.00000000E+00  0.00000000E+00