O  Si Ru C  H                           
   1.00000000000000     
    20.3096463179830877    0.0000000000000000    0.0000000000000000
     0.0000000000000000   19.8625212307842212    0.0000000000000000
     0.0000000000000000    0.0000000000000000   13.3711533343531652
   O    Si   Ru   C    H 
   192    96     2     2     3
Selective dynamics
Direct
  0.5029151419623901  0.0735660596726220  0.7069316305773725   F   F   F
  0.9975465120921569  0.5722056013321435  0.2087406600889281   F   F   F
  0.5029625376940245  0.4265088223227380  0.7071140439527213   F   F   F
  0.9976441219208062  0.9277043128181774  0.2087094225313174   T   T   T
  0.4975632479749917  0.9274442707177113  0.2910565642802849   T   T   T
  0.0032184386695491  0.4269330484855089  0.7921409749159594   F   F   F
  0.4977203592960961  0.5720242044357065  0.2903984015411680   F   F   F
  0.0031941412613889  0.0729668753257329  0.7917158063303020   F   F   F
  0.3878579723645430  0.0669556667519231  0.7965548156122182   F   F   F
  0.1133759987999525  0.5681642766849038  0.2964373645987877   F   F   F
  0.3878584358486918  0.4330437684886519  0.7965742164748164   F   F   F
  0.1136661842006454  0.9316562374886386  0.2960960779086329   T   T   T
  0.6127822037590709  0.9321840518023261  0.2021458887300684   T   T   T
  0.8876973671888919  0.4327342034956771  0.7036508835393036   F   F   F
  0.6135821534334056  0.5682784344751042  0.2033449439821382   F   F   F
  0.8876117469000917  0.0673661435016157  0.7035018781795443   F   F   F
  0.4009161058478412  0.1389419031021148  0.6318180153029829   F   F   F
  0.0979766829904172  0.6391862304883954  0.1311180603285908   T   T   T
  0.4010424696537882  0.3610528181545121  0.6318133081225312   F   F   F
  0.0980876152423831  0.8608881425021300  0.1308360282979204   T   T   T
  0.5990487092072893  0.8614526517716160  0.3679566921443769   T   T   T
  0.9019278058779037  0.3610410398314983  0.8685731531220142   F   F   F
  0.5979431770668403  0.6390525943989059  0.3688040258537755   T   T   T
  0.9020589687179950  0.1389418631131747  0.8685141393728202   F   F   F
  0.4059805669348791  0.0047442563955897  0.6216751015979938   F   F   F
  0.0951764573732916  0.5048736608876467  0.1227496371721131   F   F   F
  0.4060063268505516  0.4952757309538711  0.6217644002593659   F   F   F
  0.0950015642958267  0.9952244845270474  0.1226548120051072   T   T   T
  0.5949664749152797  0.9958235112401038  0.3755203472343406   T   T   T
  0.9063174878259801  0.4953848205285425  0.8779651251188270   F   F   F
  0.5950752590078494  0.5043549968709016  0.3761727772273389   F   F   F
  0.9063218528932850  0.0045785558899212  0.8776992153014049   F   F   F
  0.3240114434950669  0.0382407076679172  0.9638230470655600   F   F   F
  0.1763485455368254  0.5378781522500660  0.4641542393044347   F   F   F
  0.3240639192643968  0.4618354887910741  0.9638665486159397   F   F   F
  0.1757950786410173  0.9620184088709394  0.4643342317380636   T   T   T
  0.6771949400733991  0.9617151773792635  0.0358882462064080   T   T   T
  0.8239264782183469  0.4615726959520288  0.5363529546552854   F   F   F
  0.6766273407468262  0.5380862158563389  0.0360413412402991   F   F   F
  0.8238113343158346  0.0383815205381524  0.5362542402135873   F   F   F
  0.3212104455877973  0.9532959247223236  0.8079726881959860   T   T   T
  0.1776758631529702  0.4534601678782408  0.3068976961336460   F   F   F
  0.3217291042216033  0.5466230856040681  0.8071625387420625   F   F   F
  0.1777392319065001  0.0465284403162727  0.3069405612850815   F   F   F
  0.6782953929680886  0.0464276494116262  0.1929820249193881   F   F   F
  0.8214903320832505  0.5463853187552132  0.6930224919608605   F   F   F
  0.6783411531563246  0.4536225664016982  0.1930928964972622   F   F   F
  0.8215975447369744  0.9536891927251224  0.6931882409675929   T   T   T
  0.2563457342386215  0.0684226129951071  0.8017762481607349   F   F   F
  0.2448952522016867  0.5671912581414134  0.3029801725596926   F   F   F
  0.2563604704749665  0.4316428390570621  0.8018556833268136   F   F   F
  0.2453276660308927  0.9329923916848660  0.3041889072281769   T   T   T
  0.7442962617642921  0.9317833123875607  0.1986640500097918   T   T   T
  0.7562410131176875  0.4314383528184749  0.6983979119208144   F   F   F
  0.7450790913829763  0.5677876932779427  0.1974180494790900   F   F   F
  0.7561874466482195  0.0686029683221889  0.6982838657223311   F   F   F
  0.2923457530791964  0.1261305060343005  0.1042687178754136   F   F   F
  0.2080330972101687  0.6261988570568603  0.6035145090908564   T   T   T
  0.2924222850649301  0.3739550916486252  0.1043750301760937   F   F   F
  0.2090870279604413  0.8739127156966645  0.6035958458679138   T   T   T
  0.7090355510671459  0.8738075055873974  0.8950803169313520   T   T   T
  0.7920626114484861  0.3741440791997874  0.3955590558159940   F   F   F
  0.7091231052407374  0.6261900773037333  0.8956622256067315   T   T   T
  0.7918328172678528  0.1258395964698522  0.3955348022627305   F   F   F
  0.2009180106485928  0.0428348962614322  0.0293984412057924   F   F   F
  0.2996968197579477  0.5426935160259490  0.5294112209858000   F   F   F
  0.2010372834083469  0.4573071122565651  0.0296181964629270   F   F   F
  0.2995669605770827  0.9582468789608271  0.5286911084287087   T   T   T
  0.8000259730513791  0.9575007944004229  0.9696946666015248   T   T   T
  0.7007908648720971  0.4573025797676209  0.4705712418615562   F   F   F
  0.7997060817570443  0.5420944581861136  0.9703302267615257   F   F   F
  0.7006462591275380  0.0424959606184885  0.4703037048025678   F   F   F
  0.2960414124477015  0.9969281097573093  0.1471320562005920   T   T   T
  0.2042062705839172  0.4967531181442908  0.6471179485467573   F   F   F
  0.2967512456497943  0.5034965594674716  0.1468170404423290   F   F   F
  0.2042827147657746  0.0033044922153636  0.6469642495983621   F   F   F
  0.7035695737600207  0.0031082455789999  0.8524917251822970   F   F   F
  0.7966009577419371  0.5038039927924629  0.3537093559489008   F   F   F
  0.7037483821235924  0.4970039567455018  0.8526551329040757   F   F   F
  0.7967953839278668  0.9959608611815888  0.3538792210165655   T   T   T
  0.1093131791865716  0.1272507473097590  0.0964945470806668   F   F   F
  0.3897903477367844  0.6264023012230929  0.6010698268460974   T   T   T
  0.1096159065423521  0.3727429065902896  0.0968433397711834   F   F   F
  0.3892227229017871  0.8734817441015981  0.6006885725143591   T   T   T
  0.8915279080941548  0.8725572915426385  0.9029318549459536   T   T   T
  0.6094185792695015  0.3723840888363128  0.4038542259655458   F   F   F
  0.8906481773299635  0.6272878518588291  0.9025664043635374   T   T   T
  0.6094041022901209  0.1276315479534134  0.4037605891893747   F   F   F
  0.0831048349475765  0.0475109685477975  0.9435687042287597   F   F   F
  0.4176871806418063  0.5499813561623768  0.4438436836473443   F   F   F
  0.0831856777148303  0.4523523729842580  0.9438997465468049   F   F   F
  0.4174573023519000  0.9503418021664647  0.4435095173373788   T   T   T
  0.9179606923079756  0.9515257196585827  0.0560472060809636   T   T   T
  0.5827906879946028  0.4530925389524398  0.5556375829759830   F   F   F
  0.9173413997613409  0.5488456328287370  0.0565855780411937   F   F   F
  0.5826187119468287  0.0467912904197689  0.5553540539617146   F   F   F
  0.1296231040844802  0.0799627804154994  0.7634423203244225   F   F   F
  0.3713805715389924  0.5807279038530382  0.2623249302738841   F   F   F
  0.1296318253701898  0.4200410798835748  0.7636759413020187   F   F   F
  0.3716057771509630  0.9200946937031436  0.2599053202855848   T   T   T
  0.8711592293749167  0.9197387438589010  0.2359138334080408   T   T   T
  0.6292993944101113  0.4207916246772925  0.7356744224965155   F   F   F
  0.8713626048482652  0.5804791718471378  0.2374900436238292   F   F   F
  0.6292492851724560  0.0793042870953116  0.7352598947508895   F   F   F
  0.0749789017580705  0.9607976108175990  0.7917499763146469   T   T   T
  0.4241131313273669  0.4613752091790673  0.2948144036777691   F   F   F
  0.0748028995871124  0.5391836990524368  0.7923195950701611   F   F   F
  0.4241964469789892  0.0386462131336458  0.2945780170194396   F   F   F
  0.9248077689555814  0.0391348004589247  0.2067119060627078   F   F   F
  0.5730250382433582  0.5395395133105296  0.7075292341394857   F   F   F
  0.9246677977408950  0.4608033835361240  0.2067758124953869   F   F   F
  0.5732171150282737  0.9604773616084422  0.7074044835874680   T   T   T
  0.2161824121332003  0.1373904738735874  0.6463271447778780   F   F   F
  0.2811904067038144  0.6363411897837770  0.1461143400487578   T   T   T
  0.2161517510064428  0.3626744318723070  0.6464343906898762   F   F   F
  0.2804572754770792  0.8641040857363476  0.1463372881531671   T   T   T
  0.7856082119002183  0.8616491569076071  0.3527154458150474   T   T   T
  0.7150253360603145  0.3628167424777686  0.8534947758407938   F   F   F
  0.7841933853581712  0.6380871761651832  0.3525844231723667   T   T   T
  0.7148261493384283  0.1372886464544649  0.8532633160024901   F   F   F
  0.4973055249096353  0.8517915881446044  0.7121873272179581   T   T   T
  0.0036584267006603  0.3545747407892605  0.2132407109572441   F   F   F
  0.4970480533513177  0.6483581362343660  0.7138505878640095   T   T   T
  0.0035385368081577  0.1455500153788094  0.2131493366729131   F   F   F
  0.5037287630216625  0.1445781717231256  0.2864470147087275   F   F   F
  0.9966926647495482  0.6460227824064401  0.7858080803141769   T   T   T
  0.5037707510527198  0.3555116669135501  0.2864961434610791   F   F   F
  0.9971924403467222  0.8536497703810605  0.7854936050331337   T   T   T
  0.3808051347578412  0.8349542490439540  0.7912955951798322   T   T   T
  0.1210268688035399  0.3338110613837486  0.2872208120334179   F   F   F
  0.3801250954565535  0.6657547885090334  0.7910859830509169   T   T   T
  0.1209586482013023  0.1660553506375635  0.2869694551628612   F   F   F
  0.6210864063625010  0.1658884040414250  0.2130439895052163   F   F   F
  0.8795885088701793  0.6655098366554015  0.7117041542609872   T   T   T
  0.6211110157533284  0.3341538800550268  0.2131485949028544   F   F   F
  0.8797458105628200  0.8345695855256925  0.7121861917628359   T   T   T
  0.4214497992767473  0.7501235716639457  0.6509212150104011   T   T   T
  0.0746191832608716  0.2500230315661014  0.1491574075772419   F   F   F
  0.5737535633323603  0.2500033269389590  0.3499372146450668   F   F   F
  0.9252620206587711  0.7498910796525055  0.8498769135164378   T   T   T
  0.3156135966162967  0.8645381039003862  0.9557112518577906   T   T   T
  0.1831382099758727  0.3656193254218110  0.4546788161282862   F   F   F
  0.3153184387254843  0.6352121258002108  0.9552092549980423   T   T   T
  0.1830710617180671  0.1345150281137819  0.4545914900688217   F   F   F
  0.6830517762348904  0.1344874634880142  0.0452736917138168   F   F   F
  0.8174474518919247  0.6337459655152106  0.5444721034147969   T   T   T
  0.6830854472072687  0.3655253709567745  0.0454288807432022   F   F   F
  0.8182632898278821  0.8660818021483392  0.5445807359545750   T   T   T
  0.2501592915171528  0.8424352302579882  0.7877605374111961   T   T   T
  0.2513284304882717  0.3439160443049900  0.2888596437238746   F   F   F
  0.2495223965744295  0.6569603566325242  0.7876996946874192   T   T   T
  0.2512496259875334  0.1561531436267387  0.2887659973841181   F   F   F
  0.7514064122389215  0.1563514770940770  0.2107774734307739   F   F   F
  0.7493102389757057  0.6565438492851926  0.7103247700957739   T   T   T
  0.7514333991542230  0.3437018738677295  0.2109204239965408   F   F   F
  0.7495378101988864  0.8432745355126630  0.7100671261555925   T   T   T
  0.2959513273307821  0.7499464140949277  0.0543522858687684   T   T   T
  0.2037513614112356  0.2500402232570522  0.5473130572547689   F   F   F
  0.7036288451255430  0.2500227799147439  0.9524367183681051   F   F   F
  0.7956758566553430  0.7498321346110174  0.4544020665495375   T   T   T
  0.1947511852590701  0.8290079514198818  0.0054492952796921   T   T   T
  0.3039760542072045  0.3321511197779401  0.5063204852821102   F   F   F
  0.1945841462271680  0.6707135817783529  0.0058550876634021   T   T   T
  0.3039535270350342  0.1678850199576374  0.5061614664230731   F   F   F
  0.8037674365760594  0.1675499430433049  0.9919476301601620   F   F   F
  0.6964047113805456  0.6655928881837173  0.4933055153448154   T   T   T
  0.8038193000716305  0.3323998958156906  0.9923103515000236   F   F   F
  0.6972455237162183  0.8347989800699179  0.4931044913476218   T   T   T
  0.0897411352766237  0.7499966808146220  0.0220528644335888   T   T   T
  0.4070684857934594  0.2499810289984339  0.5234879823940233   F   F   F
  0.9068306617426174  0.2499858845960929  0.9771434341541791   F   F   F
  0.5962836962099887  0.7505452255709436  0.4775708259842376   T   T   T
  0.0807705994236246  0.8698333763711767  0.9350301871095935   T   T   T
  0.4196731292247478  0.3690835510139365  0.4362494260570955   F   F   F
  0.0804974575895800  0.6300492930610653  0.9353427703944514   T   T   T
  0.4196318579545562  0.1308483549065897  0.4362280688829117   F   F   F
  0.9187871414795694  0.1307480475178480  0.0643944961597001   F   F   F
  0.5805009793226557  0.6312870494013723  0.5644907449115639   T   T   T
  0.9189813415853791  0.3691962182345989  0.0643979391319860   F   F   F
  0.5815711529810726  0.8698943586448334  0.5637337594767687   T   T   T
  0.1230687211989339  0.8405866042988013  0.7489942874879051   T   T   T
  0.3782191667140111  0.3406282260943811  0.2495822814269246   F   F   F
  0.1225817825536363  0.6596396495717282  0.7492976071854934   T   T   T
  0.3781398319688947  0.1593484212036174  0.2495850342034558   F   F   F
  0.8780772199561611  0.1597428608575626  0.2513021010905376   F   F   F
  0.6227809042452449  0.6590132985800852  0.7511148469758830   T   T   T
  0.8781527669198397  0.3400969411418018  0.2511874583142415   F   F   F
  0.6227533376375231  0.8407300991616391  0.7504601746787581   T   T   T
  0.2007966445361914  0.7499876982034845  0.6655425405735067   T   T   T
  0.2996637301077030  0.2500277610362360  0.1677077677577756   F   F   F
  0.7990848778479602  0.2499825440223233  0.3330224582314472   F   F   F
  0.7012770217811172  0.7499750715750146  0.8322090802862684   T   T   T
  0.4243120677247703  0.0706248793323780  0.6882720414480872   F   F   F
  0.0760515629478533  0.5707141827737630  0.1887833199971851   F   F   F
  0.4243642501694112  0.4293781953153299  0.6883255931551702   F   F   F
  0.0761794776650527  0.9292907605138454  0.1886529842113200   T   T   T
  0.5760621885520284  0.9295755163290912  0.3103506798730745   T   T   T
  0.9246233627582825  0.4294307430317730  0.8116017276557059   F   F   F
  0.5761242863364586  0.5706873103235637  0.3109170475815333   F   F   F
  0.9246201416023538  0.0705567486414296  0.8113905219130189   F   F   F
  0.3223819734165474  0.0318316953936488  0.8430151480515420   F   F   F
  0.1780452314772205  0.5317164602638726  0.3432883448099062   F   F   F
  0.3224146420772769  0.4682209026483264  0.8430421287326908   F   F   F
  0.1781338558572556  0.9682904443410744  0.3434313949814701   T   T   T
  0.6782172548258696  0.9680834795875173  0.1567956060099206   T   T   T
  0.8222945580976031  0.4680597921700667  0.6571628257407198   F   F   F
  0.6784011481407290  0.5319538700143198  0.1569513425766544   F   F   F
  0.8222309627981090  0.0319692201244450  0.6570775164942972   F   F   F
  0.2779123087333701  0.0511264612777964  0.0613109493893447   F   F   F
  0.2226568316635706  0.5510577151876532  0.5612541371714030   F   F   F
  0.2780423512307522  0.4489808195105951  0.0614569707557564   F   F   F
  0.2227986751103494  0.9492228152304166  0.5608632817770225   T   T   T
  0.7229712092175230  0.9489058951349327  0.9380432477016218   T   T   T
  0.7778141510926559  0.4491288428941544  0.4387963766751781   F   F   F
  0.7227333495790305  0.5509907875996660  0.9386600761461779   F   F   F
  0.7777079553616204  0.0507975122443085  0.4386758489674847   F   F   F
  0.1224574189986996  0.0532732866075847  0.0483851064646856   F   F   F
  0.3779769887972222  0.5535711134250292  0.5484128788570217   F   F   F
  0.1226107360804676  0.4467220309073738  0.0486672413644982   F   F   F
  0.3778081217171479  0.9463666704092495  0.5480492346240818   T   T   T
  0.8784565641738085  0.9464385803536356  0.9513252000592303   T   T   T
  0.6224157232441314  0.4466922016762993  0.4511188640456680   F   F   F
  0.8780396312731398  0.5534298767382921  0.9515768464672476   F   F   F
  0.6222660347702487  0.0532503084769687  0.4508426119537319   F   F   F
  0.0728412340832634  0.0397062233897643  0.8238019586723624   F   F   F
  0.4277437962122690  0.5407555480855848  0.3241855554615896   F   F   F
  0.0728651157205249  0.4602342044834629  0.8241694721060924   F   F   F
  0.4273656275366606  0.9591809749793745  0.3238191708457525   T   T   T
  0.9277981322069654  0.9601490929521963  0.1757045290267607   T   T   T
  0.5722872311394767  0.4606056157916711  0.6753226260991951   F   F   F
  0.9275541845522710  0.5399426299954300  0.1762338123948481   F   F   F
  0.5722002755176163  0.0394245703525797  0.6750904917086089   F   F   F
  0.2016626826565684  0.0714697559756701  0.7134550092025691   F   F   F
  0.2988993987442186  0.5712898499085739  0.2141871586954238   F   F   F
  0.2016336523030233  0.4285870286521600  0.7135974393340589   F   F   F
  0.2986396013611793  0.9290207222004858  0.2142771993851043   T   T   T
  0.7993127507045887  0.9282349732338762  0.2863837661803723   T   T   T
  0.7012003299792298  0.4288186369106910  0.7861858612953654   F   F   F
  0.7990674709343182  0.5717379632341064  0.2865965737987679   F   F   F
  0.7010838455696202  0.0712665571672204  0.7859514996808130   F   F   F
  0.4227847199563404  0.8281368605485416  0.6880368554528150   T   T   T
  0.0769156502417161  0.3279886870119242  0.1860147788485307   F   F   F
  0.4226936816141551  0.6721540354501396  0.6883065928495308   T   T   T
  0.0768112818279434  0.1720160537428654  0.1858265876985072   F   F   F
  0.5767129546629590  0.1718671486741741  0.3139569590465925   F   F   F
  0.9232902790163398  0.6719343447031294  0.8132451817913274   T   T   T
  0.5767212789286447  0.3281510196691713  0.3140415784961021   F   F   F
  0.9237456459852337  0.8279320519721336  0.8132989130097313   T   T   T
  0.3169162076792855  0.8738773297363747  0.8350184034389169   T   T   T
  0.1833074541364965  0.3740495101119237  0.3339202901998917   F   F   F
  0.3166135433237408  0.6259673126526621  0.8344451843978639   T   T   T
  0.1832639004326140  0.1259627486727979  0.3338573048679194   F   F   F
  0.6834029271010706  0.1259062829963540  0.1659798546337825   F   F   F
  0.8170038210860664  0.6256919063182290  0.6652903208085706   T   T   T
  0.6834285715484469  0.3741454557802228  0.1661310163765606   F   F   F
  0.8172799460594978  0.8743590654555883  0.6653637803350126   T   T   T
  0.2711355338911552  0.8274463173389977  0.0399355421096286   T   T   T
  0.2271237881017711  0.3276058948125495  0.5390136658916944   F   F   F
  0.2710732672112497  0.6726025990824301  0.0393088436801750   T   T   T
  0.2271202873219309  0.1724799435127480  0.5389173023724467   F   F   F
  0.7267472501634842  0.1723610876501098  0.9604303881170466   F   F   F
  0.7730522281342196  0.6719757304209503  0.4608749587361787   T   T   T
  0.7268216124557796  0.3276504608084423  0.9606404345553159   F   F   F
  0.7738710544101280  0.8279432712966192  0.4608760679032977   T   T   T
  0.1157199648172389  0.8273756724538592  0.0237666788910237   T   T   T
  0.3827581189327915  0.3278378273251619  0.5246491080329818   F   F   F
  0.1155469403266199  0.6726079766246437  0.0239612439612954   T   T   T
  0.3827275409154680  0.1721328363621524  0.5246189896410982   F   F   F
  0.8826748189633378  0.1720728385653771  0.9752648999179740   F   F   F
  0.6176931009492245  0.6718825143476885  0.4755741951372198   T   T   T
  0.8827059240094073  0.3279195982384806  0.9753863353167560   F   F   F
  0.6186220888854707  0.8289512206262741  0.4750333061528723   T   T   T
  0.0694741349678824  0.8810451381046249  0.8156313274984608   T   T   T
  0.4310362713513314  0.3815536136468793  0.3171561254436810   F   F   F
  0.0691451381378290  0.6189241176087691  0.8159082900715682   T   T   T
  0.4310160210270055  0.1184563301937942  0.3171106125946963   F   F   F
  0.9308107186515571  0.1189823214311971  0.1834600447849795   F   F   F
  0.5688677242936461  0.6194855902484667  0.6837852103814798   T   T   T
  0.9308747943928424  0.3809922836910218  0.1834914197417490   F   F   F
  0.5692420051425819  0.8807042039716947  0.6829814461169085   T   T   T
  0.1955969269899413  0.8277599538348744  0.7016044244425054   T   T   T
  0.3055343881691073  0.3279008594260304  0.2027792002935414   F   F   F
  0.1950857754375951  0.6723138053156069  0.7017232070752092   T   T   T
  0.3054784587058776  0.1721382358153463  0.2027155232773481   F   F   F
  0.8051754997750677  0.1721935395061607  0.2975943809345409   F   F   F
  0.6955259384950883  0.6720939660547853  0.7972380603866052   T   T   T
  0.8052597360911449  0.3277658206369907  0.2976066237846595   F   F   F
  0.6955719378085015  0.8277928623915167  0.7968035887209040   T   T   T
  0.3551273421790796  0.7457077400282265  0.2582990974208167   T   T   T
  0.3535961846342521  0.7526218756528753  0.4277535026431004   T   T   T
  0.4537106596506090  0.7521144745626902  0.2977648100382538   T   T   T
  0.4428924132531664  0.7562540955250348  0.4053346911456081   T   T   T
  0.4774784640546594  0.7969540143118533  0.2644129713913458   T   T   T
  0.4808921625366603  0.7065419938028856  0.2737535065492295   T   T   T
  0.4802208989231468  0.7602094474118268  0.4646350009178760   T   T   T
 
  0.00000000E+00  0.00000000E+00  0.00000000E+00
  0.00000000E+00  0.00000000E+00  0.00000000E+00
  0.00000000E+00  0.00000000E+00  0.00000000E+00
  0.00000000E+00  0.00000000E+00  0.00000000E+00
  0.00000000E+00  0.00000000E+00  0.00000000E+00
  0.00000000E+00  0.00000000E+00  0.00000000E+00
  0.00000000E+00  0.00000000E+00  0.00000000E+00
  0.00000000E+00  0.00000000E+00  0.00000000E+00
  0.00000000E+00  0.00000000E+00  0.00000000E+00
  0.00000000E+00  0.00000000E+00  0.00000000E+00
  0.00000000E+00  0.00000000E+00  0.00000000E+00
  0.00000000E+00  0.00000000E+00  0.00000000E+00
  0.00000000E+00  0.00000000E+00  0.00000000E+00
  0.00000000E+00  0.00000000E+00  0.00000000E+00
  0.00000000E+00  0.00000000E+00  0.00000000E+00
  0.00000000E+00  0.00000000E+00  0.00000000E+00
  0.00000000E+00  0.00000000E+00  0.00000000E+00
  0.00000000E+00  0.00000000E+00  0.00000000E+00
  0.00000000E+00  0.00000000E+00  0.00000000E+00
  0.00000000E+00  0.00000000E+00  0.00000000E+00
  0.00000000E+00  0.00000000E+00  0.00000000E+00
  0.00000000E+00  0.00000000E+00  0.00000000E+00
  0.00000000E+00  0.00000000E+00  0.00000000E+00
  0.00000000E+00  0.00000000E+00  0.00000000E+00
  0.00000000E+00  0.00000000E+00  0.00000000E+00
  0.00000000E+00  0.00000000E+00  0.00000000E+00
  0.00000000E+00  0.00000000E+00  0.00000000E+00
  0.00000000E+00  0.00000000E+00  0.00000000E+00
  0.00000000E+00  0.00000000E+00  0.00000000E+00
  0.00000000E+00  0.00000000E+00  0.00000000E+00
  0.00000000E+00  0.00000000E+00  0.00000000E+00
  0.00000000E+00  0.00000000E+00  0.00000000E+00
  0.00000000E+00  0.00000000E+00  0.00000000E+00
  0.00000000E+00  0.00000000E+00  0.00000000E+00
  0.00000000E+00  0.00000000E+00  0.00000000E+00
  0.00000000E+00  0.00000000E+00  0.00000000E+00
  0.00000000E+00  0.00000000E+00  0.00000000E+00
  0.00000000E+00  0.00000000E+00  0.00000000E+00
  0.00000000E+00  0.00000000E+00  0.00000000E+00
  0.00000000E+00  0.00000000E+00  0.00000000E+00
  0.00000000E+00  0.00000000E+00  0.00000000E+00
  0.00000000E+00  0.00000000E+00  0.00000000E+00
  0.00000000E+00  0.00000000E+00  0.00000000E+00
  0.00000000E+00  0.00000000E+00  0.00000000E+00
  0.00000000E+00  0.00000000E+00  0.00000000E+00
  0.00000000E+00  0.00000000E+00  0.00000000E+00
  0.00000000E+00  0.00000000E+00  0.00000000E+00
  0.00000000E+00  0.00000000E+00  0.00000000E+00
  0.00000000E+00  0.00000000E+00  0.00000000E+00
  0.00000000E+00  0.00000000E+00  0.00000000E+00
  0.00000000E+00  0.00000000E+00  0.00000000E+00
  0.00000000E+00  0.00000000E+00  0.00000000E+00
  0.00000000E+00  0.00000000E+00  0.00000000E+00
  0.00000000E+00  0.00000000E+00  0.00000000E+00
  0.00000000E+00  0.00000000E+00  0.00000000E+00
  0.00000000E+00  0.00000000E+00  0.00000000E+00
  0.00000000E+00  0.00000000E+00  0.00000000E+00
  0.00000000E+00  0.00000000E+00  0.00000000E+00
  0.00000000E+00  0.00000000E+00  0.00000000E+00
  0.00000000E+00  0.00000000E+00  0.00000000E+00
  0.00000000E+00  0.00000000E+00  0.00000000E+00
  0.00000000E+00  0.00000000E+00  0.00000000E+00
  0.00000000E+00  0.00000000E+00  0.00000000E+00
  0.00000000E+00  0.00000000E+00  0.00000000E+00
  0.00000000E+00  0.00000000E+00  0.00000000E+00
  0.00000000E+00  0.00000000E+00  0.00000000E+00
  0.00000000E+00  0.00000000E+00  0.00000000E+00
  0.00000000E+00  0.00000000E+00  0.00000000E+00
  0.00000000E+00  0.00000000E+00  0.00000000E+00
  0.00000000E+00  0.00000000E+00  0.00000000E+00
  0.00000000E+00  0.00000000E+00  0.00000000E+00
  0.00000000E+00  0.00000000E+00  0.00000000E+00
  0.00000000E+00  0.00000000E+00  0.00000000E+00
  0.00000000E+00  0.00000000E+00  0.00000000E+00
  0.00000000E+00  0.00000000E+00  0.00000000E+00
  0.00000000E+00  0.00000000E+00  0.00000000E+00
  0.00000000E+00  0.00000000E+00  0.00000000E+00
  0.00000000E+00  0.00000000E+00  0.00000000E+00
  0.00000000E+00  0.00000000E+00  0.00000000E+00
  0.00000000E+00  0.00000000E+00  0.00000000E+00
  0.00000000E+00  0.00000000E+00  0.00000000E+00
  0.00000000E+00  0.00000000E+00  0.00000000E+00
  0.00000000E+00  0.00000000E+00  0.00000000E+00
  0.00000000E+00  0.00000000E+00  0.00000000E+00
  0.00000000E+00  0.00000000E+00  0.00000000E+00
  0.00000000E+00  0.00000000E+00  0.00000000E+00
  0.00000000E+00  0.00000000E+00  0.00000000E+00
  0.00000000E+00  0.00000000E+00  0.00000000E+00
  0.00000000E+00  0.00000000E+00  0.00000000E+00
  0.00000000E+00  0.00000000E+00  0.00000000E+00
  0.00000000E+00  0.00000000E+00  0.00000000E+00
  0.00000000E+00  0.00000000E+00  0.00000000E+00
  0.00000000E+00  0.00000000E+00  0.00000000E+00
  0.00000000E+00  0.00000000E+00  0.00000000E+00
  0.00000000E+00  0.00000000E+00  0.00000000E+00
  0.00000000E+00  0.00000000E+00  0.00000000E+00
  0.00000000E+00  0.00000000E+00  0.00000000E+00
  0.00000000E+00  0.00000000E+00  0.00000000E+00
  0.00000000E+00  0.00000000E+00  0.00000000E+00
  0.00000000E+00  0.00000000E+00  0.00000000E+00
  0.00000000E+00  0.00000000E+00  0.00000000E+00
  0.00000000E+00  0.00000000E+00  0.00000000E+00
  0.00000000E+00  0.00000000E+00  0.00000000E+00
  0.00000000E+00  0.00000000E+00  0.00000000E+00
  0.00000000E+00  0.00000000E+00  0.00000000E+00
  0.00000000E+00  0.00000000E+00  0.00000000E+00
  0.00000000E+00  0.00000000E+00  0.00000000E+00
  0.00000000E+00  0.00000000E+00  0.00000000E+00
  0.00000000E+00  0.00000000E+00  0.00000000E+00
  0.00000000E+00  0.00000000E+00  0.00000000E+00
  0.00000000E+00  0.00000000E+00  0.00000000E+00
  0.00000000E+00  0.00000000E+00  0.00000000E+00
  0.00000000E+00  0.00000000E+00  0.00000000E+00
  0.00000000E+00  0.00000000E+00  0.00000000E+00
  0.00000000E+00  0.00000000E+00  0.00000000E+00
  0.00000000E+00  0.00000000E+00  0.00000000E+00
  0.00000000E+00  0.00000000E+00  0.00000000E+00
  0.00000000E+00  0.00000000E+00  0.00000000E+00
  0.00000000E+00  0.00000000E+00  0.00000000E+00
  0.00000000E+00  0.00000000E+00  0.00000000E+00
  0.00000000E+00  0.00000000E+00  0.00000000E+00
  0.00000000E+00  0.00000000E+00  0.00000000E+00
  0.00000000E+00  0.00000000E+00  0.00000000E+00
  0.00000000E+00  0.00000000E+00  0.00000000E+00
  0.00000000E+00  0.00000000E+00  0.00000000E+00
  0.00000000E+00  0.00000000E+00  0.00000000E+00
  0.00000000E+00  0.00000000E+00  0.00000000E+00
  0.00000000E+00  0.00000000E+00  0.00000000E+00
  0.00000000E+00  0.00000000E+00  0.00000000E+00
  0.00000000E+00  0.00000000E+00  0.00000000E+00
  0.00000000E+00  0.00000000E+00  0.00000000E+00
  0.00000000E+00  0.00000000E+00  0.00000000E+00
  0.00000000E+00  0.00000000E+00  0.00000000E+00
  0.00000000E+00  0.00000000E+00  0.00000000E+00
  0.00000000E+00  0.00000000E+00  0.00000000E+00
  0.00000000E+00  0.00000000E+00  0.00000000E+00
  0.00000000E+00  0.00000000E+00  0.00000000E+00
  0.00000000E+00  0.00000000E+00  0.00000000E+00
  0.00000000E+00  0.00000000E+00  0.00000000E+00
  0.00000000E+00  0.00000000E+00  0.00000000E+00
  0.00000000E+00  0.00000000E+00  0.00000000E+00
  0.00000000E+00  0.00000000E+00  0.00000000E+00
  0.00000000E+00  0.00000000E+00  0.00000000E+00
  0.00000000E+00  0.00000000E+00  0.00000000E+00
  0.00000000E+00  0.00000000E+00  0.00000000E+00
  0.00000000E+00  0.00000000E+00  0.00000000E+00
  0.00000000E+00  0.00000000E+00  0.00000000E+00
  0.00000000E+00  0.00000000E+00  0.00000000E+00
  0.00000000E+00  0.00000000E+00  0.00000000E+00
  0.00000000E+00  0.00000000E+00  0.00000000E+00
  0.00000000E+00  0.00000000E+00  0.00000000E+00
  0.00000000E+00  0.00000000E+00  0.00000000E+00
  0.00000000E+00  0.00000000E+00  0.00000000E+00
  0.00000000E+00  0.00000000E+00  0.00000000E+00
  0.00000000E+00  0.00000000E+00  0.00000000E+00
  0.00000000E+00  0.00000000E+00  0.00000000E+00
  0.00000000E+00  0.00000000E+00  0.00000000E+00
  0.00000000E+00  0.00000000E+00  0.00000000E+00
  0.00000000E+00  0.00000000E+00  0.00000000E+00
  0.00000000E+00  0.00000000E+00  0.00000000E+00
  0.00000000E+00  0.00000000E+00  0.00000000E+00
  0.00000000E+00  0.00000000E+00  0.00000000E+00
  0.00000000E+00  0.00000000E+00  0.00000000E+00
  0.00000000E+00  0.00000000E+00  0.00000000E+00
  0.00000000E+00  0.00000000E+00  0.00000000E+00