O  Si Ru C  H                           
   1.00000000000000     
    20.3096463179830877    0.0000000000000000    0.0000000000000000
     0.0000000000000000   19.8625212307842212    0.0000000000000000
     0.0000000000000000    0.0000000000000000   13.3711533343531652
   O    Si   Ru   C    H 
   192    96     3     2     3
Selective dynamics
Direct
  0.5028877452364711  0.0739375769157533  0.7055898549302597   F   F   F
  0.9969805616853620  0.5700905567564902  0.2101558540572128   F   F   F
  0.5030212000033316  0.4261740206325015  0.7057136596688096   F   F   F
  0.9970653950135500  0.9300105944156201  0.2101849610198201   F   F   F
  0.4981395804403022  0.9256482936323920  0.2916888203279839   F   F   F
  0.0035794016485511  0.4286777834492028  0.7895570069551709   F   F   F
  0.4979660896644589  0.5745554445994685  0.2918884460234423   F   F   F
  0.0036532065042536  0.0712173637643190  0.7894803547256757   F   F   F
  0.3888614861390920  0.0656236896485396  0.7985246257251006   F   F   F
  0.1124762876443910  0.5677297713530365  0.2974441453135128   F   F   F
  0.3888403052620788  0.4343725890680474  0.7988554857109165   F   F   F
  0.1127087992304041  0.9324542912375620  0.2974455989630869   F   F   F
  0.6113773154766662  0.9346736757061151  0.1998169541468755   F   F   F
  0.8876114498219891  0.4317507906338989  0.7021149149761428   F   F   F
  0.6114845316460418  0.5655046943355231  0.1996348592139157   F   F   F
  0.8876552415079786  0.0681606615601638  0.7021334461473501   F   F   F
  0.4001000315033494  0.1398835871241602  0.6348692201073050   F   F   F
  0.0967443228964271  0.6388285407649477  0.1324689380263848   F   F   F
  0.4000077613174469  0.3602862141790553  0.6351725063760441   F   F   F
  0.0967675024649495  0.8613887555616913  0.1327448601910746   F   F   F
  0.6041901042653564  0.8639315504428140  0.3645933480538446   F   F   F
  0.9037054251436629  0.3610249227583608  0.8674087148058902   F   F   F
  0.6037544127762615  0.6365408751586799  0.3645569496131955   F   F   F
  0.9037628197277030  0.1389347455703316  0.8673744336450255   F   F   F
  0.4050757249245365  0.0056929270750530  0.6211798224885712   F   F   F
  0.0957756227992874  0.5042511388761639  0.1236108361862875   F   F   F
  0.4050988687257870  0.4939476945817702  0.6218748605056632   F   F   F
  0.0958684176322535  0.9958565954900038  0.1235567248081750   F   F   F
  0.5939912666281586  0.9970629399376492  0.3725790946371461   F   F   F
  0.9055326851893639  0.4956672454141753  0.8758156043183831   F   F   F
  0.5941634282199999  0.5037582533258629  0.3728841831849579   F   F   F
  0.9054011954626233  0.0040881115989464  0.8761214729812394   F   F   F
  0.3236523208722843  0.0391294676347655  0.9643551467434932   F   F   F
  0.1755297726824026  0.5375732219535792  0.4652490745429105   F   F   F
  0.3235463505455627  0.4609654861836532  0.9645509046978162   F   F   F
  0.1755647936531659  0.9625158899382456  0.4651014908003717   F   F   F
  0.6780077802090716  0.9621591147867008  0.0349480404886009   F   F   F
  0.8239056990396989  0.4615796486947801  0.5350961485991235   F   F   F
  0.6781074604083983  0.5378191677373465  0.0347950147866740   F   F   F
  0.8237876587350073  0.0384197372410213  0.5349778887304595   F   F   F
  0.3189884360358235  0.9545047844514869  0.8087600663793850   F   F   F
  0.1788580681001122  0.4537375773171135  0.3065570271190765   F   F   F
  0.3186222119023796  0.5455443335725079  0.8089016617409754   F   F   F
  0.1789750695707113  0.0462126564669632  0.3065469150376785   F   F   F
  0.6819084872383243  0.0463094520441629  0.1921239936564589   F   F   F
  0.8213607975933712  0.5459847624519014  0.6932018593366891   F   F   F
  0.6819333501364682  0.4536671099328657  0.1921724898350661   F   F   F
  0.8212968798604408  0.9540829195374059  0.6931301088795436   F   F   F
  0.2577638232356776  0.0708063964155770  0.8008015623303919   F   F   F
  0.2440542438489786  0.5684618178329046  0.3045231802355914   F   F   F
  0.2578248147473801  0.4293146600422517  0.8010523117439519   F   F   F
  0.2443753597045841  0.9316177461804784  0.3043263549091506   F   F   F
  0.7426686345258631  0.9295020542347174  0.1994656453367512   F   F   F
  0.7560449369142646  0.4302641704986669  0.6971346836658228   F   F   F
  0.7427305341120061  0.5706074618420445  0.1995809432847722   F   F   F
  0.7560837081924277  0.0698352068138206  0.6970421623709910   F   F   F
  0.2917599796719799  0.1260124940185960  0.1065895456089692   F   F   F
  0.2083435996099325  0.6249867203673602  0.6068642601039045   F   F   F
  0.2917676573031400  0.3740913709621836  0.1064718363614858   F   F   F
  0.2080459539171571  0.8752223123701697  0.6067257099222942   F   F   F
  0.7092284402286850  0.8736483836604165  0.8948167087645729   F   F   F
  0.7912359380248830  0.3754091465753220  0.3929636253979680   F   F   F
  0.7092030670374712  0.6264901305048483  0.8948815838344188   F   F   F
  0.7911385918669964  0.1246131086529303  0.3929266190941831   F   F   F
  0.1997786833843662  0.0449557592616188  0.0272256665572712   F   F   F
  0.2990402900503355  0.5411581451118082  0.5289567437885268   F   F   F
  0.1999057264232036  0.4552836259235065  0.0274776442747822   F   F   F
  0.2993400503770403  0.9587266207907632  0.5294200295231803   F   F   F
  0.8012655460540472  0.9554516750210311  0.9712767800380036   F   F   F
  0.7008069260447911  0.4591646817477297  0.4691363500300980   F   F   F
  0.8013201194317006  0.5446255713753843  0.9710643011307241   F   F   F
  0.7007207053664786  0.0408096344794302  0.4690391397534341   F   F   F
  0.2930721124411590  0.9960014950171967  0.1454501882779624   F   F   F
  0.2039561673860604  0.4947675469843915  0.6479276515589518   F   F   F
  0.2932583547214236  0.5042565233416170  0.1458186451777124   F   F   F
  0.2036550336479763  0.0054378658489682  0.6479034149892797   F   F   F
  0.7071539989654383  0.0025078480863669  0.8525383265801096   F   F   F
  0.7971745808675337  0.5059795206523177  0.3528545840426531   F   F   F
  0.7070888414334533  0.4974835443893824  0.8522609533122889   F   F   F
  0.7971613365679246  0.9939770237462611  0.3526661343787865   F   F   F
  0.1087135406104807  0.1279984283279632  0.0973465643463527   F   F   F
  0.3886059815914393  0.6252138917916668  0.6031391332940430   F   F   F
  0.1087671017132052  0.3720856472103407  0.0975488548651668   F   F   F
  0.3887308115401993  0.8751595044974536  0.6029184073236138   F   F   F
  0.8929502691183160  0.8722428780867233  0.9013043923525359   F   F   F
  0.6106034151927489  0.3720754812633515  0.4055372072853629   F   F   F
  0.8931485312526561  0.6278559157715407  0.9010013346484982   F   F   F
  0.6104728240547530  0.1276714175934970  0.4054027398987401   F   F   F
  0.0808601985820943  0.0483140343991977  0.9454146065845777   F   F   F
  0.4173357060377967  0.5500375570885936  0.4447550223839229   F   F   F
  0.0809477962311647  0.4517020563098413  0.9453835539394220   F   F   F
  0.4168449254299773  0.9498345377848452  0.4449548920919284   F   F   F
  0.9199500041029083  0.9518167446896584  0.0540632138499717   F   F   F
  0.5830836846554206  0.4548134221697211  0.5551904190844681   F   F   F
  0.9198731486928367  0.5482317445811731  0.0540651869431201   F   F   F
  0.5832805483014312  0.0451694837556289  0.5546739976532251   F   F   F
  0.1302830681824645  0.0806222508182657  0.7671740257040653   F   F   F
  0.3706930789548935  0.5777319569501884  0.2612628493602003   F   F   F
  0.1303954293302922  0.4194930122495961  0.7670848956929888   F   F   F
  0.3713266988868469  0.9227382869973724  0.2607153930057393   F   F   F
  0.8702426956904361  0.9188463402696101  0.2322769367913082   F   F   F
  0.6290590299966254  0.4246826107795627  0.7356356432708040   F   F   F
  0.8702195238576991  0.5811811361184809  0.2321804968723029   F   F   F
  0.6291891639250053  0.0754393206671153  0.7355819649052009   F   F   F
  0.0773130763829784  0.9604398465939212  0.7943792623101089   F   F   F
  0.4274659898355253  0.4616775583962891  0.2970447592522376   F   F   F
  0.0770558500973735  0.5396405819802936  0.7943802061052594   F   F   F
  0.4275436357657512  0.0383151022942698  0.2970523386780712   F   F   F
  0.9217913704791911  0.0391719253699989  0.2053785804359904   F   F   F
  0.5689055642214456  0.5413437581705196  0.7056045577145582   F   F   F
  0.9217713641972267  0.4607717242411411  0.2052920279614625   F   F   F
  0.5691416749610241  0.9584286743404462  0.7052222961814394   F   F   F
  0.2140849868331927  0.1393091058805211  0.6480333536041556   F   F   F
  0.2826874814126086  0.6389197243789866  0.1485025572832868   F   F   F
  0.2140800470425859  0.3608136654368082  0.6480678047863648   F   F   F
  0.2827315841192330  0.8612067997407706  0.1485865747272754   F   F   F
  0.7860609019963078  0.8600390749425983  0.3524135748266986   F   F   F
  0.7124348488885346  0.3628268985625596  0.8518486948914301   F   F   F
  0.7860172683122428  0.6402424965665148  0.3528238352112538   F   F   F
  0.7125529594765041  0.1373431407495644  0.8517651572499219   F   F   F
  0.4986968824170859  0.8457087523046880  0.7084521947240958   F   F   F
  0.0027396019675621  0.3559272043123727  0.2143021123234448   F   F   F
  0.4982860148329067  0.6544876726622704  0.7085113761238020   F   F   F
  0.0027098820322848  0.1441498604040632  0.2142534801928733   F   F   F
  0.5039323041481722  0.1472469776153460  0.2906389675588983   F   F   F
  0.9986593419442755  0.6461324653014913  0.7838725821980006   F   F   F
  0.5037190649385508  0.3527270056644127  0.2906694017825302   F   F   F
  0.9985794395393128  0.8541677620076555  0.7840369870592596   F   F   F
  0.3841167120979918  0.8381007098107887  0.7958767714798398   F   F   F
  0.1197634306922453  0.3350338599130396  0.2889662606588033   F   F   F
  0.3839255207209078  0.6619759848513809  0.7959489921134590   F   F   F
  0.1196968631317077  0.1650535573481520  0.2888361626728866   F   F   F
  0.6199173425070086  0.1636747979945881  0.2131249303336489   F   F   F
  0.8812949581188931  0.6640984378363370  0.7094732049740031   F   F   F
  0.6200664028649996  0.3363634679123990  0.2128880116050951   F   F   F
  0.8813779412267877  0.8360343104702395  0.7096017360824192   F   F   F
  0.4150752363772128  0.7504293695554765  0.6517318768989568   F   F   F
  0.0729682739733732  0.2500092998676990  0.1529587410931015   F   F   F
  0.5777115369235659  0.2496403212452165  0.3507159409482909   F   F   F
  0.9262390156709941  0.7501789800482754  0.8458476957531005   F   F   F
  0.3155990702873979  0.8666978507396905  0.9579271622481400   F   F   F
  0.1828184363340029  0.3674553472111057  0.4556137575433681   F   F   F
  0.3155174912713932  0.6333242836579487  0.9581639994874322   F   F   F
  0.1828209380607930  0.1326658102470546  0.4557878154253814   F   F   F
  0.6824201328848716  0.1350210266256511  0.0450608972242037   F   F   F
  0.8170741110823556  0.6319526570094780  0.5433997752736488   F   F   F
  0.6824791258904170  0.3649854802429502  0.0448472606636017   F   F   F
  0.8169764090936908  0.8681226850677248  0.5436086886960751   F   F   F
  0.2529550115090444  0.8398551067809308  0.7874801273644181   F   F   F
  0.2502201207313632  0.3424191599595616  0.2898428034546257   F   F   F
  0.2529087265059218  0.6600537280631826  0.7877259226812896   F   F   F
  0.2504406117261269  0.1577374791062596  0.2898157702775634   F   F   F
  0.7504343722361995  0.1592762662976099  0.2097189674852018   F   F   F
  0.7510893268095629  0.6568264015257128  0.7103521542011109   F   F   F
  0.7505719752268547  0.3407205948919199  0.2097999394035810   F   F   F
  0.7509914004062281  0.8431331467003673  0.7104942272165573   F   F   F
  0.2952818882905746  0.7499950548148178  0.0472390236362088   F   F   F
  0.2022350380372799  0.2499678605660307  0.5430096478816040   F   F   F
  0.7053185322585307  0.2499822270195011  0.9515981643560991   F   F   F
  0.8010750897255008  0.7500539892455009  0.4573356354257925   F   F   F
  0.1940567888629516  0.8318849820784919  0.0088882137084738   F   F   F
  0.3033288665968783  0.3324046289794040  0.5082525234616639   F   F   F
  0.1945135408054597  0.6679421846742528  0.0091881669778644   F   F   F
  0.3033416828616282  0.1677236933109825  0.5082651017971216   F   F   F
  0.8036005537786579  0.1646375215746190  0.9890283394463282   F   F   F
  0.6990716928892482  0.6717924851110411  0.4918814702130021   F   F   F
  0.8035941523201373  0.3353753981144010  0.9889525741210932   F   F   F
  0.6979938775456986  0.8280953264934894  0.4918174415916354   F   F   F
  0.0915540570408879  0.7501603064128162  0.0253938201537665   F   F   F
  0.4062299662445241  0.2499083742941011  0.5243255108211287   F   F   F
  0.9046474995230938  0.2499590951640656  0.9752615755018397   F   F   F
  0.5921276947007001  0.7496114847914157  0.4652616602188857   F   F   F
  0.0797738091036635  0.8689534255612301  0.9375868068519182   F   F   F
  0.4188722163474807  0.3699178031780619  0.4396257438110496   F   F   F
  0.0798278286352740  0.6311376350441122  0.9372487435086470   F   F   F
  0.4188554529928368  0.1301440652729013  0.4393268182909722   F   F   F
  0.9191522673749333  0.1315729573106097  0.0639673991949721   F   F   F
  0.5834536205099212  0.6314721630055971  0.5622230424767878   F   F   F
  0.9191224618653777  0.3683798756667755  0.0638659023979358   F   F   F
  0.5834981363056215  0.8682627447883107  0.5617443911774771   F   F   F
  0.1250149665199913  0.8399865646004372  0.7538154592802684   F   F   F
  0.3771519035909634  0.3419385214533222  0.2522686399617200   F   F   F
  0.1251732107059027  0.6599168332688023  0.7533156067424827   F   F   F
  0.3773151638809225  0.1580339674769959  0.2522474285271272   F   F   F
  0.8774377226256362  0.1607203761888485  0.2499269222486760   F   F   F
  0.6243555215180479  0.6589945449610042  0.7493498186652303   F   F   F
  0.8774709204297366  0.3393167076876509  0.2499053256339181   F   F   F
  0.6242289318699576  0.8411806232283610  0.7492337362499413   F   F   F
  0.2005867494881883  0.7498734152252808  0.6641949812278440   F   F   F
  0.3012959750705093  0.2498382101959749  0.1691274444757056   F   F   F
  0.7992567542802291  0.2499393382836814  0.3357123219283338   F   F   F
  0.7014014751023083  0.7500952079239909  0.8314684319992551   F   F   F
  0.4242278053324782  0.0710739987291404  0.6891815353670623   F   F   F
  0.0757796910083073  0.5696487794166316  0.1901648029156959   F   F   F
  0.4240067683452935  0.4291412897909268  0.6890597081877061   F   F   F
  0.0759172005453408  0.9305712990609862  0.1904466826633779   F   F   F
  0.5763646822128976  0.9309542533090394  0.3083090638544022   F   F   F
  0.9250882614855911  0.4294296616649476  0.8094877587087481   F   F   F
  0.5763371031921167  0.5685275398778842  0.3085304814991758   F   F   F
  0.9249566558662679  0.0706133385975676  0.8092356974905002   F   F   F
  0.3223443888390349  0.0325886064764873  0.8438319017872260   F   F   F
  0.1786208931429485  0.5320477204189658  0.3439717987690329   F   F   F
  0.3221672875857635  0.4674073409171271  0.8441844692794049   F   F   F
  0.1785851618352226  0.9681088779268734  0.3438579580483960   F   F   F
  0.6781520914276911  0.9683136904612439  0.1559534438968413   F   F   F
  0.8221777548342217  0.4670106089489892  0.6559627288740870   F   F   F
  0.6781446133274187  0.5317175613292378  0.1559195889733118   F   F   F
  0.8221979936285919  0.0330845963839508  0.6560067227446069   F   F   F
  0.2768378503259896  0.0517147941522964  0.0615424325766654   F   F   F
  0.2221489409943374  0.5497763302691396  0.5621152972699335   F   F   F
  0.2768143781625909  0.4486573168949093  0.0622929641244951   F   F   F
  0.2218258970358420  0.9499242910016790  0.5620847658545998   F   F   F
  0.7241742033449725  0.9484979376740839  0.9378921015032660   F   F   F
  0.7778865754720883  0.4502282094004073  0.4373651168689321   F   F   F
  0.7241980276410089  0.5516851880362736  0.9382738365694152   F   F   F
  0.7780462208940477  0.0499283590668753  0.4374284610363048   F   F   F
  0.1218307316500287  0.0543794266648163  0.0487983295438070   F   F   F
  0.3774398134792207  0.5550092778871090  0.5495699685912072   F   F   F
  0.1216411159198074  0.4457431531884879  0.0487523978926063   F   F   F
  0.3771634875501704  0.9453915710301146  0.5495310430445031   F   F   F
  0.8794805035271551  0.9462565617695304  0.9500778229259552   F   F   F
  0.6222052352853495  0.4473934575011853  0.4501162805378414   F   F   F
  0.8796848743754424  0.5538051909009027  0.9499362486657503   F   F   F
  0.6224195570489286  0.0528463972100326  0.4510484689014476   F   F   F
  0.0729658798558148  0.0398514414898088  0.8248848054544879   F   F   F
  0.4282699608634815  0.5413016867007272  0.3253590404152646   F   F   F
  0.0729922175657336  0.4601417984414269  0.8250001420250541   F   F   F
  0.4280335462013980  0.9593191285821376  0.3253184003048872   F   F   F
  0.9272701596447988  0.9606146088791547  0.1747505437860966   F   F   F
  0.5711212362783513  0.4622545483574072  0.6743608123333189   F   F   F
  0.9272006456907675  0.5395167143405217  0.1745563230495435   F   F   F
  0.5711111230203727  0.0376819625359559  0.6747332968161430   F   F   F
  0.2017788987843829  0.0732821643155717  0.7147125148981104   F   F   F
  0.2982848232544555  0.5716458935254991  0.2152885286626471   F   F   F
  0.2016047250745459  0.4268325468268230  0.7143144209899788   F   F   F
  0.2978726017533830  0.9281918135040570  0.2148657247846870   F   F   F
  0.7988922771107738  0.9271319902649680  0.2851219036423700   F   F   F
  0.7011996298849681  0.4293137294598637  0.7851099405260555   F   F   F
  0.7990481312006779  0.5725660300845590  0.2849362368162289   F   F   F
  0.7011852058752552  0.0709671637711722  0.7849353645931103   F   F   F
  0.4219267541058969  0.8267208716886216  0.6873540378295289   F   F   F
  0.0759359844226069  0.3282635081713465  0.1881978246411222   F   F   F
  0.4219106773998007  0.6729898821955089  0.6872198162994110   F   F   F
  0.0758775566267005  0.1718282783124394  0.1880781688928153   F   F   F
  0.5770739134444298  0.1717251645363476  0.3153196153948130   F   F   F
  0.9253475540465317  0.6716762065257456  0.8105836171918597   F   F   F
  0.5770862364315477  0.3285333949217701  0.3151859001923398   F   F   F
  0.9251709369232941  0.8283688037121948  0.8106563067026045   F   F   F
  0.3176448170197332  0.8744112276834102  0.8361361440328139   F   F   F
  0.1829394330614704  0.3747148196975516  0.3350270422447252   F   F   F
  0.3175664767119102  0.6255252272745153  0.8366062471810523   F   F   F
  0.1830125686894775  0.1254771547924207  0.3351056679147177   F   F   F
  0.6838258232020209  0.1260897490396289  0.1653391672439852   F   F   F
  0.8177422109565882  0.6244381773923635  0.6652496151685270   F   F   F
  0.6836556707775046  0.3738936686204255  0.1652267672999415   F   F   F
  0.8176594637670149  0.8755608973034654  0.6650352251386238   F   F   F
  0.2715536195981159  0.8278315154975573  0.0424440311658145   F   F   F
  0.2260889298503841  0.3275125286723792  0.5387672434289144   F   F   F
  0.2717346687444291  0.6719457559587383  0.0425664973402320   F   F   F
  0.2260834374381702  0.1726661820081929  0.5388885874619049   F   F   F
  0.7264917840182790  0.1719482053707608  0.9590078545264049   F   F   F
  0.7749583466936727  0.6728301225483762  0.4603792222909817   F   F   F
  0.7264297335439807  0.3280828703027225  0.9593719434960803   F   F   F
  0.7755671802141109  0.8270463197222071  0.4602547311967626   F   F   F
  0.1160421139696268  0.8280230299435871  0.0268172778145583   F   F   F
  0.3819779884454064  0.3280496148204577  0.5266603500007534   F   F   F
  0.1157220167076645  0.6720083322797308  0.0269257247839576   F   F   F
  0.3819438004563906  0.1721959095697585  0.5267177489385944   F   F   F
  0.8825143340695121  0.1716065917468299  0.9735626790761813   F   F   F
  0.6197450252974122  0.6702698268130760  0.4713242430221811   F   F   F
  0.8824068509828180  0.3283807355982944  0.9735718880272159   F   F   F
  0.6196306618143836  0.8297826918370248  0.4709183043325069   F   F   F
  0.0707844656232623  0.8810870954360794  0.8173111656420105   F   F   F
  0.4312713425576078  0.3816688441210161  0.3202548006948547   F   F   F
  0.0706655701581766  0.6190455368384562  0.8172078970813317   F   F   F
  0.4310597416029012  0.1183117648359797  0.3202241119613944   F   F   F
  0.9299768151509511  0.1195671401016654  0.1827698248242839   F   F   F
  0.5685666146783248  0.6215623795864644  0.6801522965741853   F   F   F
  0.9299565138866939  0.3806144469916646  0.1828030357971215   F   F   F
  0.5685254748418700  0.8785465880612335  0.6808815353982780   F   F   F
  0.1969558440841723  0.8273933002448217  0.7029849377061552   F   F   F
  0.3054638151134412  0.3279777233430465  0.2052166629574117   F   F   F
  0.1969118133377776  0.6726660421828328  0.7026489304848127   F   F   F
  0.3055002891187044  0.1721248953884853  0.2049595115018690   F   F   F
  0.8046484978711490  0.1728212990474773  0.2971296251135911   F   F   F
  0.6967574275839894  0.6721788527758790  0.7966486490627247   F   F   F
  0.8046729343751835  0.3272736129939062  0.2972139246163721   F   F   F
  0.6968495617963484  0.8277542069507149  0.7966959753330443   F   F   F
  0.4789877712862420  0.7459017242340025  0.3965050767561635   F   F   F
  0.3962013300168223  0.7537117210424071  0.2290776955002372   F   F   F
  0.3576103152558687  0.7538832645780147  0.3947753516181223   F   F   F
  0.4853680429140397  0.7526051086900267  0.2664668667594796   T   T   T
  0.4818097305061144  0.7673221512153745  0.1193653259979399   T   T   T
  0.4608261264479268  0.7242447634627567  0.0744027877147673   T   T   T
  0.5377628382609245  0.7664533928401340  0.1052851355095967   T   T   T
  0.4641932582369890  0.8130746084531353  0.0860834147618334   T   T   T
 
  0.00000000E+00  0.00000000E+00  0.00000000E+00
  0.00000000E+00  0.00000000E+00  0.00000000E+00
  0.00000000E+00  0.00000000E+00  0.00000000E+00
  0.00000000E+00  0.00000000E+00  0.00000000E+00
  0.00000000E+00  0.00000000E+00  0.00000000E+00
  0.00000000E+00  0.00000000E+00  0.00000000E+00
  0.00000000E+00  0.00000000E+00  0.00000000E+00
  0.00000000E+00  0.00000000E+00  0.00000000E+00
  0.00000000E+00  0.00000000E+00  0.00000000E+00
  0.00000000E+00  0.00000000E+00  0.00000000E+00
  0.00000000E+00  0.00000000E+00  0.00000000E+00
  0.00000000E+00  0.00000000E+00  0.00000000E+00
  0.00000000E+00  0.00000000E+00  0.00000000E+00
  0.00000000E+00  0.00000000E+00  0.00000000E+00
  0.00000000E+00  0.00000000E+00  0.00000000E+00
  0.00000000E+00  0.00000000E+00  0.00000000E+00
  0.00000000E+00  0.00000000E+00  0.00000000E+00
  0.00000000E+00  0.00000000E+00  0.00000000E+00
  0.00000000E+00  0.00000000E+00  0.00000000E+00
  0.00000000E+00  0.00000000E+00  0.00000000E+00
  0.00000000E+00  0.00000000E+00  0.00000000E+00
  0.00000000E+00  0.00000000E+00  0.00000000E+00
  0.00000000E+00  0.00000000E+00  0.00000000E+00
  0.00000000E+00  0.00000000E+00  0.00000000E+00
  0.00000000E+00  0.00000000E+00  0.00000000E+00
  0.00000000E+00  0.00000000E+00  0.00000000E+00
  0.00000000E+00  0.00000000E+00  0.00000000E+00
  0.00000000E+00  0.00000000E+00  0.00000000E+00
  0.00000000E+00  0.00000000E+00  0.00000000E+00
  0.00000000E+00  0.00000000E+00  0.00000000E+00
  0.00000000E+00  0.00000000E+00  0.00000000E+00
  0.00000000E+00  0.00000000E+00  0.00000000E+00
  0.00000000E+00  0.00000000E+00  0.00000000E+00
  0.00000000E+00  0.00000000E+00  0.00000000E+00
  0.00000000E+00  0.00000000E+00  0.00000000E+00
  0.00000000E+00  0.00000000E+00  0.00000000E+00
  0.00000000E+00  0.00000000E+00  0.00000000E+00
  0.00000000E+00  0.00000000E+00  0.00000000E+00
  0.00000000E+00  0.00000000E+00  0.00000000E+00
  0.00000000E+00  0.00000000E+00  0.00000000E+00
  0.00000000E+00  0.00000000E+00  0.00000000E+00
  0.00000000E+00  0.00000000E+00  0.00000000E+00
  0.00000000E+00  0.00000000E+00  0.00000000E+00
  0.00000000E+00  0.00000000E+00  0.00000000E+00
  0.00000000E+00  0.00000000E+00  0.00000000E+00
  0.00000000E+00  0.00000000E+00  0.00000000E+00
  0.00000000E+00  0.00000000E+00  0.00000000E+00
  0.00000000E+00  0.00000000E+00  0.00000000E+00
  0.00000000E+00  0.00000000E+00  0.00000000E+00
  0.00000000E+00  0.00000000E+00  0.00000000E+00
  0.00000000E+00  0.00000000E+00  0.00000000E+00
  0.00000000E+00  0.00000000E+00  0.00000000E+00
  0.00000000E+00  0.00000000E+00  0.00000000E+00
  0.00000000E+00  0.00000000E+00  0.00000000E+00
  0.00000000E+00  0.00000000E+00  0.00000000E+00
  0.00000000E+00  0.00000000E+00  0.00000000E+00
  0.00000000E+00  0.00000000E+00  0.00000000E+00
  0.00000000E+00  0.00000000E+00  0.00000000E+00
  0.00000000E+00  0.00000000E+00  0.00000000E+00
  0.00000000E+00  0.00000000E+00  0.00000000E+00
  0.00000000E+00  0.00000000E+00  0.00000000E+00
  0.00000000E+00  0.00000000E+00  0.00000000E+00
  0.00000000E+00  0.00000000E+00  0.00000000E+00
  0.00000000E+00  0.00000000E+00  0.00000000E+00
  0.00000000E+00  0.00000000E+00  0.00000000E+00
  0.00000000E+00  0.00000000E+00  0.00000000E+00
  0.00000000E+00  0.00000000E+00  0.00000000E+00
  0.00000000E+00  0.00000000E+00  0.00000000E+00
  0.00000000E+00  0.00000000E+00  0.00000000E+00
  0.00000000E+00  0.00000000E+00  0.00000000E+00
  0.00000000E+00  0.00000000E+00  0.00000000E+00
  0.00000000E+00  0.00000000E+00  0.00000000E+00
  0.00000000E+00  0.00000000E+00  0.00000000E+00
  0.00000000E+00  0.00000000E+00  0.00000000E+00
  0.00000000E+00  0.00000000E+00  0.00000000E+00
  0.00000000E+00  0.00000000E+00  0.00000000E+00
  0.00000000E+00  0.00000000E+00  0.00000000E+00
  0.00000000E+00  0.00000000E+00  0.00000000E+00
  0.00000000E+00  0.00000000E+00  0.00000000E+00
  0.00000000E+00  0.00000000E+00  0.00000000E+00
  0.00000000E+00  0.00000000E+00  0.00000000E+00
  0.00000000E+00  0.00000000E+00  0.00000000E+00
  0.00000000E+00  0.00000000E+00  0.00000000E+00
  0.00000000E+00  0.00000000E+00  0.00000000E+00
  0.00000000E+00  0.00000000E+00  0.00000000E+00
  0.00000000E+00  0.00000000E+00  0.00000000E+00
  0.00000000E+00  0.00000000E+00  0.00000000E+00
  0.00000000E+00  0.00000000E+00  0.00000000E+00
  0.00000000E+00  0.00000000E+00  0.00000000E+00
  0.00000000E+00  0.00000000E+00  0.00000000E+00
  0.00000000E+00  0.00000000E+00  0.00000000E+00
  0.00000000E+00  0.00000000E+00  0.00000000E+00
  0.00000000E+00  0.00000000E+00  0.00000000E+00
  0.00000000E+00  0.00000000E+00  0.00000000E+00
  0.00000000E+00  0.00000000E+00  0.00000000E+00
  0.00000000E+00  0.00000000E+00  0.00000000E+00
  0.00000000E+00  0.00000000E+00  0.00000000E+00
  0.00000000E+00  0.00000000E+00  0.00000000E+00
  0.00000000E+00  0.00000000E+00  0.00000000E+00
  0.00000000E+00  0.00000000E+00  0.00000000E+00
  0.00000000E+00  0.00000000E+00  0.00000000E+00
  0.00000000E+00  0.00000000E+00  0.00000000E+00
  0.00000000E+00  0.00000000E+00  0.00000000E+00
  0.00000000E+00  0.00000000E+00  0.00000000E+00
  0.00000000E+00  0.00000000E+00  0.00000000E+00
  0.00000000E+00  0.00000000E+00  0.00000000E+00
  0.00000000E+00  0.00000000E+00  0.00000000E+00
  0.00000000E+00  0.00000000E+00  0.00000000E+00
  0.00000000E+00  0.00000000E+00  0.00000000E+00
  0.00000000E+00  0.00000000E+00  0.00000000E+00
  0.00000000E+00  0.00000000E+00  0.00000000E+00
  0.00000000E+00  0.00000000E+00  0.00000000E+00
  0.00000000E+00  0.00000000E+00  0.00000000E+00
  0.00000000E+00  0.00000000E+00  0.00000000E+00
  0.00000000E+00  0.00000000E+00  0.00000000E+00
  0.00000000E+00  0.00000000E+00  0.00000000E+00
  0.00000000E+00  0.00000000E+00  0.00000000E+00
  0.00000000E+00  0.00000000E+00  0.00000000E+00
  0.00000000E+00  0.00000000E+00  0.00000000E+00
  0.00000000E+00  0.00000000E+00  0.00000000E+00
  0.00000000E+00  0.00000000E+00  0.00000000E+00
  0.00000000E+00  0.00000000E+00  0.00000000E+00
  0.00000000E+00  0.00000000E+00  0.00000000E+00
  0.00000000E+00  0.00000000E+00  0.00000000E+00
  0.00000000E+00  0.00000000E+00  0.00000000E+00
  0.00000000E+00  0.00000000E+00  0.00000000E+00
  0.00000000E+00  0.00000000E+00  0.00000000E+00
  0.00000000E+00  0.00000000E+00  0.00000000E+00
  0.00000000E+00  0.00000000E+00  0.00000000E+00
  0.00000000E+00  0.00000000E+00  0.00000000E+00
  0.00000000E+00  0.00000000E+00  0.00000000E+00
  0.00000000E+00  0.00000000E+00  0.00000000E+00
  0.00000000E+00  0.00000000E+00  0.00000000E+00
  0.00000000E+00  0.00000000E+00  0.00000000E+00
  0.00000000E+00  0.00000000E+00  0.00000000E+00
  0.00000000E+00  0.00000000E+00  0.00000000E+00
  0.00000000E+00  0.00000000E+00  0.00000000E+00
  0.00000000E+00  0.00000000E+00  0.00000000E+00
  0.00000000E+00  0.00000000E+00  0.00000000E+00
  0.00000000E+00  0.00000000E+00  0.00000000E+00
  0.00000000E+00  0.00000000E+00  0.00000000E+00
  0.00000000E+00  0.00000000E+00  0.00000000E+00
  0.00000000E+00  0.00000000E+00  0.00000000E+00
  0.00000000E+00  0.00000000E+00  0.00000000E+00
  0.00000000E+00  0.00000000E+00  0.00000000E+00
  0.00000000E+00  0.00000000E+00  0.00000000E+00
  0.00000000E+00  0.00000000E+00  0.00000000E+00
  0.00000000E+00  0.00000000E+00  0.00000000E+00
  0.00000000E+00  0.00000000E+00  0.00000000E+00
  0.00000000E+00  0.00000000E+00  0.00000000E+00
  0.00000000E+00  0.00000000E+00  0.00000000E+00
  0.00000000E+00  0.00000000E+00  0.00000000E+00
  0.00000000E+00  0.00000000E+00  0.00000000E+00
  0.00000000E+00  0.00000000E+00  0.00000000E+00
  0.00000000E+00  0.00000000E+00  0.00000000E+00
  0.00000000E+00  0.00000000E+00  0.00000000E+00
  0.00000000E+00  0.00000000E+00  0.00000000E+00
  0.00000000E+00  0.00000000E+00  0.00000000E+00
  0.00000000E+00  0.00000000E+00  0.00000000E+00
  0.00000000E+00  0.00000000E+00  0.00000000E+00
  0.00000000E+00  0.00000000E+00  0.00000000E+00
  0.00000000E+00  0.00000000E+00  0.00000000E+00
  0.00000000E+00  0.00000000E+00  0.00000000E+00
  0.00000000E+00  0.00000000E+00  0.00000000E+00