O  Si Ru C  H                           
   1.00000000000000     
    20.3096463179830877    0.0000000000000000    0.0000000000000000
     0.0000000000000000   19.8625212307842212    0.0000000000000000
     0.0000000000000000    0.0000000000000000   13.3711533343531652
   O    Si   Ru   C    H 
   192    96     2     2     4
Selective dynamics
Direct
  0.5029151419623901  0.0735660596726220  0.7069316305773725   F   F   F
  0.9975465120921569  0.5722056013321435  0.2087406600889281   F   F   F
  0.5029625376940245  0.4265088223227380  0.7071140439527213   F   F   F
  0.9974094583591722  0.9274402761088467  0.2080383635048264   F   F   F
  0.4979482765152383  0.9272169981567657  0.2903241814895239   F   F   F
  0.0032184386695491  0.4269330484855089  0.7921409749159594   F   F   F
  0.4977203592960961  0.5720242044357065  0.2903984015411680   F   F   F
  0.0031941412613889  0.0729668753257329  0.7917158063303020   F   F   F
  0.3878579723645430  0.0669556667519231  0.7965548156122182   F   F   F
  0.1133759987999525  0.5681642766849038  0.2964373645987877   F   F   F
  0.3878584358486918  0.4330437684886519  0.7965742164748164   F   F   F
  0.1130132049356831  0.9319768269841120  0.2964780095973154   F   F   F
  0.6136552022208477  0.9319553980040283  0.2020799091644392   F   F   F
  0.8876973671888919  0.4327342034956771  0.7036508835393036   F   F   F
  0.6135821534334056  0.5682784344751042  0.2033449439821382   F   F   F
  0.8876117469000917  0.0673661435016157  0.7035018781795443   F   F   F
  0.4009161058478412  0.1389419031021148  0.6318180153029829   F   F   F
  0.0979799379502140  0.6390764683415568  0.1310797101847285   F   F   F
  0.4010424696537882  0.3610528181545121  0.6318133081225312   F   F   F
  0.0983034513971575  0.8611671543529411  0.1308049432101583   F   F   F
  0.5979986593698428  0.8608525941165297  0.3674867413409046   F   F   F
  0.9019278058779037  0.3610410398314983  0.8685731531220142   F   F   F
  0.5976582470810214  0.6389336952856226  0.3680682919318059   F   F   F
  0.9020589687179950  0.1389418631131747  0.8685141393728202   F   F   F
  0.4059805669348791  0.0047442563955897  0.6216751015979938   F   F   F
  0.0951764573732916  0.5048736608876467  0.1227496371721131   F   F   F
  0.4060063268505516  0.4952757309538711  0.6217644002593659   F   F   F
  0.0949179364224051  0.9953519255085652  0.1225509200984334   F   F   F
  0.5950198302478498  0.9952810106512047  0.3751577842125187   F   F   F
  0.9063174878259801  0.4953848205285425  0.8779651251188270   F   F   F
  0.5950752590078494  0.5043549968709016  0.3761727772273389   F   F   F
  0.9063218528932850  0.0045785558899212  0.8776992153014049   F   F   F
  0.3240114434950669  0.0382407076679172  0.9638230470655600   F   F   F
  0.1763485455368254  0.5378781522500660  0.4641542393044347   F   F   F
  0.3240639192643968  0.4618354887910741  0.9638665486159397   F   F   F
  0.1758115429419718  0.9620536464073837  0.4645291757688170   F   F   F
  0.6767502599618567  0.9619595203173716  0.0358086698423534   F   F   F
  0.8239264782183469  0.4615726959520288  0.5363529546552854   F   F   F
  0.6766273407468262  0.5380862158563389  0.0360413412402991   F   F   F
  0.8238113343158346  0.0383815205381524  0.5362542402135873   F   F   F
  0.3215358672304944  0.9533618829240922  0.8078595178142152   F   F   F
  0.1776758631529702  0.4534601678782408  0.3068976961336460   F   F   F
  0.3217291042216033  0.5466230856040681  0.8071625387420625   F   F   F
  0.1777392319065001  0.0465284403162727  0.3069405612850815   F   F   F
  0.6782953929680886  0.0464276494116262  0.1929820249193881   F   F   F
  0.8214903320832505  0.5463853187552132  0.6930224919608605   F   F   F
  0.6783411531563246  0.4536225664016982  0.1930928964972622   F   F   F
  0.8215222561838615  0.9537064020605825  0.6933207780534616   F   F   F
  0.2563457342386215  0.0684226129951071  0.8017762481607349   F   F   F
  0.2448952522016867  0.5671912581414134  0.3029801725596926   F   F   F
  0.2563604704749665  0.4316428390570621  0.8018556833268136   F   F   F
  0.2441797009114950  0.9325529054629129  0.3042969237491562   F   F   F
  0.7446946545231725  0.9318972286442531  0.1975605846510362   F   F   F
  0.7562410131176875  0.4314383528184749  0.6983979119208144   F   F   F
  0.7450790913829763  0.5677876932779427  0.1974180494790900   F   F   F
  0.7561874466482195  0.0686029683221889  0.6982838657223311   F   F   F
  0.2923457530791964  0.1261305060343005  0.1042687178754136   F   F   F
  0.2082480256250321  0.6263068222920651  0.6041378049726731   F   F   F
  0.2924222850649301  0.3739550916486252  0.1043750301760937   F   F   F
  0.2094422633113382  0.8739525762335347  0.6036650890717326   F   F   F
  0.7083563298266000  0.8737659053868754  0.8955149908776079   F   F   F
  0.7920626114484861  0.3741440791997874  0.3955590558159940   F   F   F
  0.7089971424761217  0.6264804578145018  0.8957158679479491   F   F   F
  0.7918328172678528  0.1258395964698522  0.3955348022627305   F   F   F
  0.2009180106485928  0.0428348962614322  0.0293984412057924   F   F   F
  0.2996968197579477  0.5426935160259490  0.5294112209858000   F   F   F
  0.2010372834083469  0.4573071122565651  0.0296181964629270   F   F   F
  0.2995639340021086  0.9582754266918059  0.5285249200144264   F   F   F
  0.7997848303960069  0.9571340261827004  0.9693647882423804   F   F   F
  0.7007908648720971  0.4573025797676209  0.4705712418615562   F   F   F
  0.7997060817570443  0.5420944581861136  0.9703302267615257   F   F   F
  0.7006462591275380  0.0424959606184885  0.4703037048025678   F   F   F
  0.2953021274050869  0.9967094143049735  0.1463432345015789   F   F   F
  0.2042062705839172  0.4967531181442908  0.6471179485467573   F   F   F
  0.2967512456497943  0.5034965594674716  0.1468170404423290   F   F   F
  0.2042827147657746  0.0033044922153636  0.6469642495983621   F   F   F
  0.7035695737600207  0.0031082455789999  0.8524917251822970   F   F   F
  0.7966009577419371  0.5038039927924629  0.3537093559489008   F   F   F
  0.7037483821235924  0.4970039567455018  0.8526551329040757   F   F   F
  0.7965617822107518  0.9958185422144723  0.3533800295072567   F   F   F
  0.1093131791865716  0.1272507473097590  0.0964945470806668   F   F   F
  0.3898891925257004  0.6274626838342598  0.5988351576479403   F   F   F
  0.1096159065423521  0.3727429065902896  0.0968433397711834   F   F   F
  0.3889480058430266  0.8724153518450493  0.5997836296578782   F   F   F
  0.8912338129068047  0.8724782982876675  0.9020550512687748   F   F   F
  0.6094185792695015  0.3723840888363128  0.4038542259655458   F   F   F
  0.8906302834561899  0.6273416119484025  0.9022995985117106   F   F   F
  0.6094041022901209  0.1276315479534134  0.4037605891893747   F   F   F
  0.0831048349475765  0.0475109685477975  0.9435687042287597   F   F   F
  0.4176871806418063  0.5499813561623768  0.4438436836473443   F   F   F
  0.0831856777148303  0.4523523729842580  0.9438997465468049   F   F   F
  0.4178238065543241  0.9499197874206260  0.4432418111682779   F   F   F
  0.9172965485347788  0.9513621005032107  0.0557828242299721   F   F   F
  0.5827906879946028  0.4530925389524398  0.5556375829759830   F   F   F
  0.9173413997613409  0.5488456328287370  0.0565855780411937   F   F   F
  0.5826187119468287  0.0467912904197689  0.5553540539617146   F   F   F
  0.1296231040844802  0.0799627804154994  0.7634423203244225   F   F   F
  0.3713805715389924  0.5807279038530382  0.2623249302738841   F   F   F
  0.1296318253701898  0.4200410798835748  0.7636759413020187   F   F   F
  0.3707672334364744  0.9214852845833192  0.2603507728681151   F   F   F
  0.8708097779919228  0.9197006838292339  0.2367866480903444   F   F   F
  0.6292993944101113  0.4207916246772925  0.7356744224965155   F   F   F
  0.8713626048482652  0.5804791718471378  0.2374900436238292   F   F   F
  0.6292492851724560  0.0793042870953116  0.7352598947508895   F   F   F
  0.0748803397695710  0.9607837542609303  0.7918508608349129   F   F   F
  0.4241131313273669  0.4613752091790673  0.2948144036777691   F   F   F
  0.0748028995871124  0.5391836990524368  0.7923195950701611   F   F   F
  0.4241964469789892  0.0386462131336458  0.2945780170194396   F   F   F
  0.9248077689555814  0.0391348004589247  0.2067119060627078   F   F   F
  0.5730250382433582  0.5395395133105296  0.7075292341394857   F   F   F
  0.9246677977408950  0.4608033835361240  0.2067758124953869   F   F   F
  0.5734824902739319  0.9600643040789194  0.7076849671743091   F   F   F
  0.2161824121332003  0.1373904738735874  0.6463271447778780   F   F   F
  0.2821895846984788  0.6370121041184547  0.1462461047835859   F   F   F
  0.2161517510064428  0.3626744318723070  0.6464343906898762   F   F   F
  0.2822011172355872  0.8624687582261998  0.1459668818804971   F   F   F
  0.7841946200600631  0.8616744932945153  0.3526342882940767   F   F   F
  0.7150253360603145  0.3628167424777686  0.8534947758407938   F   F   F
  0.7836739816147968  0.6382580093676467  0.3534324732656700   F   F   F
  0.7148261493384283  0.1372886464544649  0.8532633160024901   F   F   F
  0.4966597464834877  0.8525796489971142  0.7119478614176415   F   F   F
  0.0036584267006603  0.3545747407892605  0.2132407109572441   F   F   F
  0.4967220873357334  0.6480843832883423  0.7136809251418441   F   F   F
  0.0035385368081577  0.1455500153788094  0.2131493366729131   F   F   F
  0.5037287630216625  0.1445781717231256  0.2864470147087275   F   F   F
  0.9964539398896406  0.6460305518054028  0.7858132877880522   F   F   F
  0.5037707510527198  0.3555116669135501  0.2864961434610791   F   F   F
  0.9967949506243627  0.8533531621962496  0.7853125460339996   F   F   F
  0.3806726307017243  0.8343410088669145  0.7897510047087337   F   F   F
  0.1210268688035399  0.3338110613837486  0.2872208120334179   F   F   F
  0.3799298595376968  0.6657251281476562  0.7889324561467461   F   F   F
  0.1209586482013023  0.1660553506375635  0.2869694551628612   F   F   F
  0.6210864063625010  0.1658884040414250  0.2130439895052163   F   F   F
  0.8791753104407647  0.6653744371914243  0.7111396367127440   F   F   F
  0.6211110157533284  0.3341538800550268  0.2131485949028544   F   F   F
  0.8794160061686682  0.8347125157839486  0.7106775642534515   F   F   F
  0.4218559970548199  0.7503470437839539  0.6493094042132057   F   F   F
  0.0746191832608716  0.2500230315661014  0.1491574075772419   F   F   F
  0.5737535633323603  0.2500033269389590  0.3499372146450668   F   F   F
  0.9247489103023128  0.7500893144509249  0.8491621549374244   F   F   F
  0.3160806929281677  0.8644351908971331  0.9553524467941443   F   F   F
  0.1831382099758727  0.3656193254218110  0.4546788161282862   F   F   F
  0.3159825511208609  0.6355830548135160  0.9546707478127558   F   F   F
  0.1830710617180671  0.1345150281137819  0.4545914900688217   F   F   F
  0.6830517762348904  0.1344874634880142  0.0452736917138168   F   F   F
  0.8163389167287676  0.6336604390788736  0.5442248663416436   F   F   F
  0.6830854472072687  0.3655253709567745  0.0454288807432022   F   F   F
  0.8166961070555772  0.8665423840296214  0.5442661367496200   F   F   F
  0.2499208680420466  0.8428135255940035  0.7883697221171744   F   F   F
  0.2513284304882717  0.3439160443049900  0.2888596437238746   F   F   F
  0.2489168531320729  0.6568478463982572  0.7880747823463139   F   F   F
  0.2512496259875334  0.1561531436267387  0.2887659973841181   F   F   F
  0.7514064122389215  0.1563514770940770  0.2107774734307739   F   F   F
  0.7484254015995688  0.6567475702001886  0.7111858277835381   F   F   F
  0.7514333991542230  0.3437018738677295  0.2109204239965408   F   F   F
  0.7492233405368154  0.8433333138768049  0.7106975778450106   F   F   F
  0.2966488867642596  0.7504532133219186  0.0552137365246566   F   F   F
  0.2037513614112356  0.2500402232570522  0.5473130572547689   F   F   F
  0.7036288451255430  0.2500227799147439  0.9524367183681051   F   F   F
  0.7973029311135846  0.7499894527333240  0.4537237064018242   F   F   F
  0.1956064282698406  0.8293922195988159  0.0050221317264061   F   F   F
  0.3039760542072045  0.3321511197779401  0.5063204852821102   F   F   F
  0.1953327808062255  0.6707959424659080  0.0059250695275708   F   F   F
  0.3039535270350342  0.1678850199576374  0.5061614664230731   F   F   F
  0.8037674365760594  0.1675499430433049  0.9919476301601620   F   F   F
  0.6958131330437567  0.6689302221173747  0.4920779698238960   F   F   F
  0.8038193000716305  0.3323998958156906  0.9923103515000236   F   F   F
  0.6967177727572107  0.8315898245732072  0.4919716975424748   F   F   F
  0.0901868464837250  0.7496538577144420  0.0220960402068897   F   F   F
  0.4070684857934594  0.2499810289984339  0.5234879823940233   F   F   F
  0.9068306617426174  0.2499858845960929  0.9771434341541791   F   F   F
  0.5917655812364728  0.7503091601478005  0.4766247770677055   F   F   F
  0.0809229250570169  0.8697141562172561  0.9345670766828249   F   F   F
  0.4196731292247478  0.3690835510139365  0.4362494260570955   F   F   F
  0.0808977120907599  0.6304831735758469  0.9353988792227028   F   F   F
  0.4196318579545562  0.1308483549065897  0.4362280688829117   F   F   F
  0.9187871414795694  0.1307480475178480  0.0643944961597001   F   F   F
  0.5811251012096932  0.6310629466812472  0.5646588461591264   F   F   F
  0.9189813415853791  0.3691962182345989  0.0643979391319860   F   F   F
  0.5814197151555192  0.8699536992086792  0.5645576803251799   F   F   F
  0.1232232178471762  0.8404344340768759  0.7480069518071630   F   F   F
  0.3782191667140111  0.3406282260943811  0.2495822814269246   F   F   F
  0.1224251527579767  0.6600099438425673  0.7487119011742607   F   F   F
  0.3781398319688947  0.1593484212036174  0.2495850342034558   F   F   F
  0.8780772199561611  0.1597428608575626  0.2513021010905376   F   F   F
  0.6225083585119791  0.6590680627801362  0.7519479132218621   F   F   F
  0.8781527669198397  0.3400969411418018  0.2511874583142415   F   F   F
  0.6225950782897627  0.8404406181819368  0.7507521668962411   F   F   F
  0.2010201326028564  0.7502954534555997  0.6663087802237584   F   F   F
  0.2996637301077030  0.2500277610362360  0.1677077677577756   F   F   F
  0.7990848778479602  0.2499825440223233  0.3330224582314472   F   F   F
  0.7009246514242164  0.7495427942350403  0.8326651534498666   F   F   F
  0.4243120677247703  0.0706248793323780  0.6882720414480872   F   F   F
  0.0760515629478533  0.5707141827737630  0.1887833199971851   F   F   F
  0.4243642501694112  0.4293781953153299  0.6883255931551702   F   F   F
  0.0761968390850001  0.9292426126167257  0.1883966986411778   F   F   F
  0.5762907508658657  0.9300856336641772  0.3104337081352497   F   F   F
  0.9246233627582825  0.4294307430317730  0.8116017276557059   F   F   F
  0.5761242863364586  0.5706873103235637  0.3109170475815333   F   F   F
  0.9246201416023538  0.0705567486414296  0.8113905219130189   F   F   F
  0.3223819734165474  0.0318316953936488  0.8430151480515420   F   F   F
  0.1780452314772205  0.5317164602638726  0.3432883448099062   F   F   F
  0.3224146420772769  0.4682209026483264  0.8430421287326908   F   F   F
  0.1775672565828543  0.9686279206370827  0.3433837107619766   F   F   F
  0.6775466136758297  0.9680329276505120  0.1571548992994209   F   F   F
  0.8222945580976031  0.4680597921700667  0.6571628257407198   F   F   F
  0.6784011481407290  0.5319538700143198  0.1569513425766544   F   F   F
  0.8222309627981090  0.0319692201244450  0.6570775164942972   F   F   F
  0.2779123087333701  0.0511264612777964  0.0613109493893447   F   F   F
  0.2226568316635706  0.5510577151876532  0.5612541371714030   F   F   F
  0.2780423512307522  0.4489808195105951  0.0614569707557564   F   F   F
  0.2228896521993491  0.9494025868607494  0.5601863464795045   F   F   F
  0.7228955076501435  0.9492401198721794  0.9378352946943451   F   F   F
  0.7778141510926559  0.4491288428941544  0.4387963766751781   F   F   F
  0.7227333495790305  0.5509907875996660  0.9386600761461779   F   F   F
  0.7777079553616204  0.0507975122443085  0.4386758489674847   F   F   F
  0.1224574189986996  0.0532732866075847  0.0483851064646856   F   F   F
  0.3779769887972222  0.5535711134250292  0.5484128788570217   F   F   F
  0.1226107360804676  0.4467220309073738  0.0486672413644982   F   F   F
  0.3777646661900462  0.9462271457295444  0.5466521134652069   F   F   F
  0.8780497789885047  0.9464626196388082  0.9510773476778667   F   F   F
  0.6224157232441314  0.4466922016762993  0.4511188640456680   F   F   F
  0.8780396312731398  0.5534298767382921  0.9515768464672476   F   F   F
  0.6222660347702487  0.0532503084769687  0.4508426119537319   F   F   F
  0.0728412340832634  0.0397062233897643  0.8238019586723624   F   F   F
  0.4277437962122690  0.5407555480855848  0.3241855554615896   F   F   F
  0.0728651157205249  0.4602342044834629  0.8241694721060924   F   F   F
  0.4274830390231941  0.9601031454910611  0.3256421836496202   F   F   F
  0.9272695180449517  0.9599882606339136  0.1759819679834180   F   F   F
  0.5722872311394767  0.4606056157916711  0.6753226260991951   F   F   F
  0.9275541845522710  0.5399426299954300  0.1762338123948481   F   F   F
  0.5722002755176163  0.0394245703525797  0.6750904917086089   F   F   F
  0.2016626826565684  0.0714697559756701  0.7134550092025691   F   F   F
  0.2988993987442186  0.5712898499085739  0.2141871586954238   F   F   F
  0.2016336523030233  0.4285870286521600  0.7135974393340589   F   F   F
  0.2983705289588130  0.9287073052901107  0.2136721635882353   F   F   F
  0.7997953170347714  0.9286024384227645  0.2859245864967974   F   F   F
  0.7012003299792298  0.4288186369106910  0.7861858612953654   F   F   F
  0.7990674709343182  0.5717379632341064  0.2865965737987679   F   F   F
  0.7010838455696202  0.0712665571672204  0.7859514996808130   F   F   F
  0.4229160826266138  0.8278314637513020  0.6863683779995142   F   F   F
  0.0769156502417161  0.3279886870119242  0.1860147788485307   F   F   F
  0.4219346714127497  0.6723808609976558  0.6876402171510207   F   F   F
  0.0768112818279434  0.1720160537428654  0.1858265876985072   F   F   F
  0.5767129546629590  0.1718671486741741  0.3139569590465925   F   F   F
  0.9233069892325645  0.6714790497792293  0.8126160504567892   F   F   F
  0.5767212789286447  0.3281510196691713  0.3140415784961021   F   F   F
  0.9238662826686053  0.8280906103490651  0.8124955420734992   F   F   F
  0.3168342610041037  0.8739760685785853  0.8344829881677640   F   F   F
  0.1833074541364965  0.3740495101119237  0.3339202901998917   F   F   F
  0.3170451817986617  0.6263725525981414  0.8335725036906751   F   F   F
  0.1832639004326140  0.1259627486727979  0.3338573048679194   F   F   F
  0.6834029271010706  0.1259062829963540  0.1659798546337825   F   F   F
  0.8171048929934699  0.6253289040007886  0.6653358640123415   F   F   F
  0.6834285715484469  0.3741454557802228  0.1661310163765606   F   F   F
  0.8167446452400213  0.8743771481149736  0.6653998982437557   F   F   F
  0.2713593604930580  0.8276729626556047  0.0410053504399954   F   F   F
  0.2271237881017711  0.3276058948125495  0.5390136658916944   F   F   F
  0.2711186209953809  0.6726556945429820  0.0412149276762435   F   F   F
  0.2271202873219309  0.1724799435127480  0.5389173023724467   F   F   F
  0.7267472501634842  0.1723610876501098  0.9604303881170466   F   F   F
  0.7718444911328035  0.6721987930506117  0.4607196663572921   F   F   F
  0.7268216124557796  0.3276504608084423  0.9606404345553159   F   F   F
  0.7725356237610441  0.8275732061822296  0.4604969621789223   F   F   F
  0.1151156951721006  0.8278914697579367  0.0240439514716115   F   F   F
  0.3827581189327915  0.3278378273251619  0.5246491080329818   F   F   F
  0.1157329700644638  0.6726113585126825  0.0237672489755241   F   F   F
  0.3827275409154680  0.1721328363621524  0.5246189896410982   F   F   F
  0.8826748189633378  0.1720728385653771  0.9752648999179740   F   F   F
  0.6176480582936392  0.6718339781175615  0.4763388307816143   F   F   F
  0.8827059240094073  0.3279195982384806  0.9753863353167560   F   F   F
  0.6172000200194887  0.8288027249662306  0.4758861920976614   F   F   F
  0.0687399055064333  0.8813840745803958  0.8165168037962474   F   F   F
  0.4310362713513314  0.3815536136468793  0.3171561254436810   F   F   F
  0.0685064731417242  0.6184339468261868  0.8163203216218378   F   F   F
  0.4310160210270055  0.1184563301937942  0.3171106125946963   F   F   F
  0.9308107186515571  0.1189823214311971  0.1834600447849795   F   F   F
  0.5693826514981026  0.6192907254530837  0.6834715195263925   F   F   F
  0.9308747943928424  0.3809922836910218  0.1834914197417490   F   F   F
  0.5686850391835634  0.8808431523288860  0.6816944064669457   F   F   F
  0.1957167430793447  0.8271037384358664  0.7012238672353632   F   F   F
  0.3055343881691073  0.3279008594260304  0.2027792002935414   F   F   F
  0.1955657512486582  0.6726705142081499  0.7013377493375756   F   F   F
  0.3054784587058776  0.1721382358153463  0.2027155232773481   F   F   F
  0.8051754997750677  0.1721935395061607  0.2975943809345409   F   F   F
  0.6950116205253920  0.6723557902577113  0.7979323700032310   F   F   F
  0.8052597360911449  0.3277658206369907  0.2976066237846595   F   F   F
  0.6953184961978991  0.8274948350618061  0.7968791756992246   F   F   F
  0.3732381123380293  0.7598735472603764  0.2212214793767586   F   F   F
  0.3760139716352953  0.7495725539317846  0.3989865899251441   F   F   F
  0.4890203474030272  0.7459379661443322  0.1823753721980808   T   T   T
  0.4551066197031091  0.7674650741287010  0.2968152877345389   T   T   T
  0.4645784081524056  0.7448685487877924  0.1089957525351721   T   T   T
  0.5245174148664731  0.7879522315933940  0.1780384783755196   T   T   T
  0.5172525142416049  0.6994410401895834  0.1891310891540243   T   T   T
  0.4958298218610793  0.7888099331739156  0.3381654878857844   T   T   T
 
  0.00000000E+00  0.00000000E+00  0.00000000E+00
  0.00000000E+00  0.00000000E+00  0.00000000E+00
  0.00000000E+00  0.00000000E+00  0.00000000E+00
  0.00000000E+00  0.00000000E+00  0.00000000E+00
  0.00000000E+00  0.00000000E+00  0.00000000E+00
  0.00000000E+00  0.00000000E+00  0.00000000E+00
  0.00000000E+00  0.00000000E+00  0.00000000E+00
  0.00000000E+00  0.00000000E+00  0.00000000E+00
  0.00000000E+00  0.00000000E+00  0.00000000E+00
  0.00000000E+00  0.00000000E+00  0.00000000E+00
  0.00000000E+00  0.00000000E+00  0.00000000E+00
  0.00000000E+00  0.00000000E+00  0.00000000E+00
  0.00000000E+00  0.00000000E+00  0.00000000E+00
  0.00000000E+00  0.00000000E+00  0.00000000E+00
  0.00000000E+00  0.00000000E+00  0.00000000E+00
  0.00000000E+00  0.00000000E+00  0.00000000E+00
  0.00000000E+00  0.00000000E+00  0.00000000E+00
  0.00000000E+00  0.00000000E+00  0.00000000E+00
  0.00000000E+00  0.00000000E+00  0.00000000E+00
  0.00000000E+00  0.00000000E+00  0.00000000E+00
  0.00000000E+00  0.00000000E+00  0.00000000E+00
  0.00000000E+00  0.00000000E+00  0.00000000E+00
  0.00000000E+00  0.00000000E+00  0.00000000E+00
  0.00000000E+00  0.00000000E+00  0.00000000E+00
  0.00000000E+00  0.00000000E+00  0.00000000E+00
  0.00000000E+00  0.00000000E+00  0.00000000E+00
  0.00000000E+00  0.00000000E+00  0.00000000E+00
  0.00000000E+00  0.00000000E+00  0.00000000E+00
  0.00000000E+00  0.00000000E+00  0.00000000E+00
  0.00000000E+00  0.00000000E+00  0.00000000E+00
  0.00000000E+00  0.00000000E+00  0.00000000E+00
  0.00000000E+00  0.00000000E+00  0.00000000E+00
  0.00000000E+00  0.00000000E+00  0.00000000E+00
  0.00000000E+00  0.00000000E+00  0.00000000E+00
  0.00000000E+00  0.00000000E+00  0.00000000E+00
  0.00000000E+00  0.00000000E+00  0.00000000E+00
  0.00000000E+00  0.00000000E+00  0.00000000E+00
  0.00000000E+00  0.00000000E+00  0.00000000E+00
  0.00000000E+00  0.00000000E+00  0.00000000E+00
  0.00000000E+00  0.00000000E+00  0.00000000E+00
  0.00000000E+00  0.00000000E+00  0.00000000E+00
  0.00000000E+00  0.00000000E+00  0.00000000E+00
  0.00000000E+00  0.00000000E+00  0.00000000E+00
  0.00000000E+00  0.00000000E+00  0.00000000E+00
  0.00000000E+00  0.00000000E+00  0.00000000E+00
  0.00000000E+00  0.00000000E+00  0.00000000E+00
  0.00000000E+00  0.00000000E+00  0.00000000E+00
  0.00000000E+00  0.00000000E+00  0.00000000E+00
  0.00000000E+00  0.00000000E+00  0.00000000E+00
  0.00000000E+00  0.00000000E+00  0.00000000E+00
  0.00000000E+00  0.00000000E+00  0.00000000E+00
  0.00000000E+00  0.00000000E+00  0.00000000E+00
  0.00000000E+00  0.00000000E+00  0.00000000E+00
  0.00000000E+00  0.00000000E+00  0.00000000E+00
  0.00000000E+00  0.00000000E+00  0.00000000E+00
  0.00000000E+00  0.00000000E+00  0.00000000E+00
  0.00000000E+00  0.00000000E+00  0.00000000E+00
  0.00000000E+00  0.00000000E+00  0.00000000E+00
  0.00000000E+00  0.00000000E+00  0.00000000E+00
  0.00000000E+00  0.00000000E+00  0.00000000E+00
  0.00000000E+00  0.00000000E+00  0.00000000E+00
  0.00000000E+00  0.00000000E+00  0.00000000E+00
  0.00000000E+00  0.00000000E+00  0.00000000E+00
  0.00000000E+00  0.00000000E+00  0.00000000E+00
  0.00000000E+00  0.00000000E+00  0.00000000E+00
  0.00000000E+00  0.00000000E+00  0.00000000E+00
  0.00000000E+00  0.00000000E+00  0.00000000E+00
  0.00000000E+00  0.00000000E+00  0.00000000E+00
  0.00000000E+00  0.00000000E+00  0.00000000E+00
  0.00000000E+00  0.00000000E+00  0.00000000E+00
  0.00000000E+00  0.00000000E+00  0.00000000E+00
  0.00000000E+00  0.00000000E+00  0.00000000E+00
  0.00000000E+00  0.00000000E+00  0.00000000E+00
  0.00000000E+00  0.00000000E+00  0.00000000E+00
  0.00000000E+00  0.00000000E+00  0.00000000E+00
  0.00000000E+00  0.00000000E+00  0.00000000E+00
  0.00000000E+00  0.00000000E+00  0.00000000E+00
  0.00000000E+00  0.00000000E+00  0.00000000E+00
  0.00000000E+00  0.00000000E+00  0.00000000E+00
  0.00000000E+00  0.00000000E+00  0.00000000E+00
  0.00000000E+00  0.00000000E+00  0.00000000E+00
  0.00000000E+00  0.00000000E+00  0.00000000E+00
  0.00000000E+00  0.00000000E+00  0.00000000E+00
  0.00000000E+00  0.00000000E+00  0.00000000E+00
  0.00000000E+00  0.00000000E+00  0.00000000E+00
  0.00000000E+00  0.00000000E+00  0.00000000E+00
  0.00000000E+00  0.00000000E+00  0.00000000E+00
  0.00000000E+00  0.00000000E+00  0.00000000E+00
  0.00000000E+00  0.00000000E+00  0.00000000E+00
  0.00000000E+00  0.00000000E+00  0.00000000E+00
  0.00000000E+00  0.00000000E+00  0.00000000E+00
  0.00000000E+00  0.00000000E+00  0.00000000E+00
  0.00000000E+00  0.00000000E+00  0.00000000E+00
  0.00000000E+00  0.00000000E+00  0.00000000E+00
  0.00000000E+00  0.00000000E+00  0.00000000E+00
  0.00000000E+00  0.00000000E+00  0.00000000E+00
  0.00000000E+00  0.00000000E+00  0.00000000E+00
  0.00000000E+00  0.00000000E+00  0.00000000E+00
  0.00000000E+00  0.00000000E+00  0.00000000E+00
  0.00000000E+00  0.00000000E+00  0.00000000E+00
  0.00000000E+00  0.00000000E+00  0.00000000E+00
  0.00000000E+00  0.00000000E+00  0.00000000E+00
  0.00000000E+00  0.00000000E+00  0.00000000E+00
  0.00000000E+00  0.00000000E+00  0.00000000E+00
  0.00000000E+00  0.00000000E+00  0.00000000E+00
  0.00000000E+00  0.00000000E+00  0.00000000E+00
  0.00000000E+00  0.00000000E+00  0.00000000E+00
  0.00000000E+00  0.00000000E+00  0.00000000E+00
  0.00000000E+00  0.00000000E+00  0.00000000E+00
  0.00000000E+00  0.00000000E+00  0.00000000E+00
  0.00000000E+00  0.00000000E+00  0.00000000E+00
  0.00000000E+00  0.00000000E+00  0.00000000E+00
  0.00000000E+00  0.00000000E+00  0.00000000E+00
  0.00000000E+00  0.00000000E+00  0.00000000E+00
  0.00000000E+00  0.00000000E+00  0.00000000E+00
  0.00000000E+00  0.00000000E+00  0.00000000E+00
  0.00000000E+00  0.00000000E+00  0.00000000E+00
  0.00000000E+00  0.00000000E+00  0.00000000E+00
  0.00000000E+00  0.00000000E+00  0.00000000E+00
  0.00000000E+00  0.00000000E+00  0.00000000E+00
  0.00000000E+00  0.00000000E+00  0.00000000E+00
  0.00000000E+00  0.00000000E+00  0.00000000E+00
  0.00000000E+00  0.00000000E+00  0.00000000E+00
  0.00000000E+00  0.00000000E+00  0.00000000E+00
  0.00000000E+00  0.00000000E+00  0.00000000E+00
  0.00000000E+00  0.00000000E+00  0.00000000E+00
  0.00000000E+00  0.00000000E+00  0.00000000E+00
  0.00000000E+00  0.00000000E+00  0.00000000E+00
  0.00000000E+00  0.00000000E+00  0.00000000E+00
  0.00000000E+00  0.00000000E+00  0.00000000E+00
  0.00000000E+00  0.00000000E+00  0.00000000E+00
  0.00000000E+00  0.00000000E+00  0.00000000E+00
  0.00000000E+00  0.00000000E+00  0.00000000E+00
  0.00000000E+00  0.00000000E+00  0.00000000E+00
  0.00000000E+00  0.00000000E+00  0.00000000E+00
  0.00000000E+00  0.00000000E+00  0.00000000E+00
  0.00000000E+00  0.00000000E+00  0.00000000E+00
  0.00000000E+00  0.00000000E+00  0.00000000E+00
  0.00000000E+00  0.00000000E+00  0.00000000E+00
  0.00000000E+00  0.00000000E+00  0.00000000E+00
  0.00000000E+00  0.00000000E+00  0.00000000E+00
  0.00000000E+00  0.00000000E+00  0.00000000E+00
  0.00000000E+00  0.00000000E+00  0.00000000E+00
  0.00000000E+00  0.00000000E+00  0.00000000E+00
  0.00000000E+00  0.00000000E+00  0.00000000E+00
  0.00000000E+00  0.00000000E+00  0.00000000E+00
  0.00000000E+00  0.00000000E+00  0.00000000E+00
  0.00000000E+00  0.00000000E+00  0.00000000E+00
  0.00000000E+00  0.00000000E+00  0.00000000E+00
  0.00000000E+00  0.00000000E+00  0.00000000E+00
  0.00000000E+00  0.00000000E+00  0.00000000E+00
  0.00000000E+00  0.00000000E+00  0.00000000E+00
  0.00000000E+00  0.00000000E+00  0.00000000E+00
  0.00000000E+00  0.00000000E+00  0.00000000E+00
  0.00000000E+00  0.00000000E+00  0.00000000E+00
  0.00000000E+00  0.00000000E+00  0.00000000E+00
  0.00000000E+00  0.00000000E+00  0.00000000E+00
  0.00000000E+00  0.00000000E+00  0.00000000E+00
  0.00000000E+00  0.00000000E+00  0.00000000E+00
  0.00000000E+00  0.00000000E+00  0.00000000E+00
  0.00000000E+00  0.00000000E+00  0.00000000E+00
  0.00000000E+00  0.00000000E+00  0.00000000E+00
  0.00000000E+00  0.00000000E+00  0.00000000E+00
  0.00000000E+00  0.00000000E+00  0.00000000E+00