O  Si Ru C  H                           
   1.00000000000000     
    20.3096463179999986    0.0000000000000000    0.0000000000000000
     0.0000000000000000   19.8625212309999988    0.0000000000000000
     0.0000000000000000    0.0000000000000000   13.3711533340000006
   O    Si   Ru   C    H 
   192    96     4     1     3
Selective dynamics
Direct
  0.5030220536605583  0.0548460080837927  0.7109887802891635   F   F   F
  0.9938937234032466  0.5688180200591404  0.2134782190210700   F   F   F
  0.5058955650494923  0.4361551033349755  0.7140707881736432   F   F   F
  0.9969307039116302  0.9367894329023798  0.2107948304528833   F   F   F
  0.4949864632103527  0.9429648825632526  0.2838633216738771   F   F   F
  0.0061286148488833  0.4303204966074503  0.7907560205082902   F   F   F
  0.4958614169009152  0.5649418756812636  0.2921483212721014   F   F   F
  0.0027336763590426  0.0605960334039324  0.7849659440604242   F   F   F
  0.3860707309831781  0.0662906780406587  0.7898480958366676   F   F   F
  0.1064878219018155  0.5601393635081777  0.3081102951324510   F   F   F
  0.3918975188133089  0.4397639100502175  0.8065639313683448   F   F   F
  0.1127173740081844  0.9337963586945008  0.2926561308701565   F   F   F
  0.6130155988470207  0.9357326687707825  0.2041132826635206   F   F   F
  0.8919510323498301  0.4400131231255600  0.6987714347902809   F   F   F
  0.6079529799126462  0.5578103540404484  0.1968117434797776   F   F   F
  0.8853585984933474  0.0660011881046572  0.7049175014718259   F   F   F
  0.4150776369024527  0.1337362950607783  0.6252669303208833   F   F   F
  0.0978549783133644  0.6335429351415982  0.1425494085953929   F   F   F
  0.4044304795559270  0.3699867662585774  0.6381446526608201   F   F   F
  0.0916229643226600  0.8620451452697040  0.1289888730551283   F   F   F
  0.5880225491379250  0.8658608743565921  0.3671089454578507   F   F   F
  0.9012953605093870  0.3677352897476212  0.8635664935977303   F   F   F
  0.6030641700119048  0.6266515642824757  0.3628490287119135   F   F   F
  0.9112861794937714  0.1385584422034327  0.8654264677808712   F   F   F
  0.4009464208533728  0.0003368152472802  0.6165758326199438   F   F   F
  0.0914122270240938  0.4995624616130598  0.1308653005683951   F   F   F
  0.4063482874483029  0.5049087114050650  0.6354762216654706   F   F   F
  0.0964477652308489  0.9972646357243278  0.1173900231933445   F   F   F
  0.5957937332111811  0.9986013240375229  0.3817673668448549   F   F   F
  0.9106313182622330  0.5015672423524649  0.8744907569242599   F   F   F
  0.5925021938631687  0.4944795217976221  0.3715289082332234   F   F   F
  0.9022200442634016  0.0052556268555222  0.8816217797775820   F   F   F
  0.3236762421694053  0.0390851690463307  0.9596187912506338   F   F   F
  0.1780808953228572  0.5366146561175213  0.4690358298451898   F   F   F
  0.3222847851466000  0.4629382087531226  0.9699888765033009   F   F   F
  0.1744397684001058  0.9640981513521538  0.4639240793257997   F   F   F
  0.6755814348100984  0.9644118074045522  0.0375629526828405   F   F   F
  0.8220866941046836  0.4623018343546761  0.5348730824748174   F   F   F
  0.6788020718894359  0.5351183707439588  0.0339731352003056   F   F   F
  0.8232920326722137  0.0363861159212746  0.5369559244933271   F   F   F
  0.3188804914963086  0.9530184904450323  0.8026338291036126   F   F   F
  0.1828027894660877  0.4530447013924714  0.3111309769682720   F   F   F
  0.3146943033830922  0.5479294331987532  0.8144854619464681   F   F   F
  0.1764619601880355  0.0486816345596068  0.3034076342303322   F   F   F
  0.6817395922709224  0.0470453870952525  0.1975805627239566   F   F   F
  0.8143617934568113  0.5462730473040622  0.6929215280510377   F   F   F
  0.6856145982049426  0.4519169492939596  0.1932069684244055   F   F   F
  0.8172559846741123  0.9535274892716359  0.6964560025140472   F   F   F
  0.2548606666484616  0.0697061558247256  0.7998965932731892   F   F   F
  0.2350306807543703  0.5740781780614839  0.3023665871603995   F   F   F
  0.2616160772475382  0.4264322691713787  0.8029658872207506   F   F   F
  0.2456798076083544  0.9371086270231217  0.3026694780104933   F   F   F
  0.7444368928571734  0.9307161857754380  0.1966823604746821   F   F   F
  0.7611811529331618  0.4255295640318124  0.7005932671626667   F   F   F
  0.7394294201317635  0.5723966191288810  0.1994353017565942   F   F   F
  0.7538742802443750  0.0693366156281598  0.6961344146979016   F   F   F
  0.2935905385371171  0.1295621019140114  0.0976774379423944   F   F   F
  0.2059489335514897  0.6212625203260131  0.6148347711409201   F   F   F
  0.2932370119474541  0.3796491851311856  0.1163758997545301   F   F   F
  0.1977577520116824  0.8742726967056740  0.6033825054930020   F   F   F
  0.7030201204117290  0.8755268174545066  0.8968799998356189   F   F   F
  0.7956780609063472  0.3771444678588196  0.3887121679162675   F   F   F
  0.7055657088080238  0.6216572335604909  0.8900533635896721   F   F   F
  0.7978386105935726  0.1240200058870329  0.3938605644891311   F   F   F
  0.2003195888445504  0.0480135421333898  0.0248258315276288   F   F   F
  0.3003311778302162  0.5479828000391294  0.5349329127661946   F   F   F
  0.1994170620494984  0.4574177615387569  0.0360342887381933   F   F   F
  0.2971134950120700  0.9464397687167931  0.5271699324602181   F   F   F
  0.7983851489146332  0.9529092394604888  0.9728091268630124   F   F   F
  0.6993691459516640  0.4515886928795680  0.4686903099124962   F   F   F
  0.8011720019751820  0.5438846294668593  0.9647963550905487   F   F   F
  0.7012190058365562  0.0479767894980370  0.4694404321906163   F   F   F
  0.2947092187762621  0.0008719940333108  0.1434678035680079   F   F   F
  0.2086501130373861  0.4909311303733759  0.6483419779471333   F   F   F
  0.2937495762647799  0.5108228649324005  0.1491165309524973   F   F   F
  0.2065870539695922  0.0049268669803766  0.6420672761391302   F   F   F
  0.7060344515842871  0.0056845754215615  0.8556015860583628   F   F   F
  0.7917636648230655  0.5083251961106470  0.3556349913293104   F   F   F
  0.7060477457596690  0.4907634779408738  0.8530730083691083   F   F   F
  0.7944052667082033  0.9936956024089980  0.3551952386876991   F   F   F
  0.1092682740631048  0.1304698416611600  0.0990797103965093   F   F   F
  0.3897192435589147  0.6347814486069225  0.6046247319176814   F   F   F
  0.1100097936230355  0.3689727962914304  0.0991275746296054   F   F   F
  0.3903302832493978  0.8676149316383857  0.6035978945419487   F   F   F
  0.8885014400278806  0.8715937820109474  0.8942108209616322   F   F   F
  0.6100509977379147  0.3639306367974129  0.4014410624064126   F   F   F
  0.8906688829912284  0.6323114701268793  0.9003060318955107   F   F   F
  0.6103917225290587  0.1306641775138502  0.3951140090934473   F   F   F
  0.0816242673084275  0.0546682864361259  0.9422814685672947   F   F   F
  0.4218212304567430  0.5498561775206312  0.4549285950174848   F   F   F
  0.0818886736853699  0.4509271454432096  0.9491297932938636   F   F   F
  0.4168167119925315  0.9425228440174962  0.4439998444191033   F   F   F
  0.9173365064209875  0.9437623644043427  0.0541546403599114   F   F   F
  0.5810460613260986  0.4445095311576139  0.5526524014356937   F   F   F
  0.9169691932790869  0.5537454118782179  0.0551216474442668   F   F   F
  0.5835138541775962  0.0581104476403809  0.5550007403721864   F   F   F
  0.1283921915316171  0.0780948189789257  0.7590953260696480   F   F   F
  0.3653485582082112  0.5762158724410753  0.2806766107794871   F   F   F
  0.1334543180891217  0.4191884757814748  0.7722632253227601   F   F   F
  0.3688212922428491  0.9210084554345883  0.2621441780259204   F   F   F
  0.8710284621904734  0.9196969401593051  0.2374828797995718   F   F   F
  0.6327392313380997  0.4162744449126379  0.7307267934139432   F   F   F
  0.8669579826407272  0.5819462627916394  0.2346947882214749   F   F   F
  0.6276239280790818  0.0791576246396204  0.7400977128006332   F   F   F
  0.0847247644325009  0.9571856351411867  0.8056634854831444   F   F   F
  0.4158900587310583  0.4599813837198354  0.3051486957093630   F   F   F
  0.0818704557413383  0.5392643700882616  0.7992795933933792   F   F   F
  0.4108151303750347  0.0425469652201542  0.3100263602137545   F   F   F
  0.9154265765584668  0.0409041727659414  0.1923768231315677   F   F   F
  0.5899142610564070  0.5375596519607839  0.6947014792194608   F   F   F
  0.9158175237899258  0.4612677259571996  0.2001547610103884   F   F   F
  0.5913564328964043  0.9575803483756644  0.6852251089442163   F   F   F
  0.2139648289270610  0.1395276041630922  0.6457341251218054   F   F   F
  0.2886889268378638  0.6439393997997556  0.1555378169743733   F   F   F
  0.2137151938560891  0.3567663902073122  0.6520776317648966   F   F   F
  0.2720475735268266  0.8693997000264275  0.1452529898869201   F   F   F
  0.7830200364398081  0.8598329386978918  0.3506780516888526   F   F   F
  0.7147194871205116  0.3564013811575748  0.8516034268371939   F   F   F
  0.7823617285702085  0.6421375137459222  0.3523061834929067   F   F   F
  0.7160882948074985  0.1398145767953025  0.8513633577930548   F   F   F
  0.4959367505613912  0.8678490408909738  0.7220364435916480   F   F   F
  0.0026253534485576  0.3615094940109245  0.2153509071411293   F   F   F
  0.4998393295998937  0.6341299703857288  0.7180442673996197   F   F   F
  0.0049602045462862  0.1378822944050881  0.2196310166103999   F   F   F
  0.5047109063103292  0.1338379941339483  0.2755401802649047   F   F   F
  0.0004520019628274  0.6438950952530291  0.7896947807150170   F   F   F
  0.5025922086567007  0.3611993621838323  0.2840921725383936   F   F   F
  0.9937878623770899  0.8619399219712278  0.7751186259786564   F   F   F
  0.3782256903800416  0.8354664449194189  0.7974113925451718   F   F   F
  0.1179055490433498  0.3365156881276476  0.2924295236415659   F   F   F
  0.3859520681585096  0.6599383757758801  0.8024917321615987   F   F   F
  0.1223059210931936  0.1691044133288457  0.2894163205921672   F   F   F
  0.6206459631366599  0.1652932153887861  0.2030640089285214   F   F   F
  0.8855860766053567  0.6593750031873782  0.7048546796658854   F   F   F
  0.6177404472514425  0.3364180167405451  0.2067076736732929   F   F   F
  0.8765795189757455  0.8347872763565150  0.7028256849096124   F   F   F
  0.4397865851599718  0.7496873043871020  0.6760987458735244   F   F   F
  0.0665279926023388  0.2504470576593363  0.1588726078399176   F   F   F
  0.5645553753360062  0.2479574442097174  0.3337984307345323   F   F   F
  0.9287532488087891  0.7515007700383691  0.8359024626229754   F   F   F
  0.3090467407321213  0.8701986922497937  0.9536836263461836   F   F   F
  0.1821164161151287  0.3653896660748615  0.4597441855945732   F   F   F
  0.3162669550925230  0.6362304086692134  0.9623253640567384   F   F   F
  0.1877048935422039  0.1344703408463275  0.4526124148626138   F   F   F
  0.6906225633072083  0.1294402644105119  0.0444075380161948   F   F   F
  0.8137266272999000  0.6328995122925321  0.5441422903661675   F   F   F
  0.6845525413053650  0.3659948259062986  0.0436903223983336   F   F   F
  0.8055004870026181  0.8708038520812309  0.5442724212499144   F   F   F
  0.2493524466505193  0.8432590105358315  0.7824957009052582   F   F   F
  0.2482775879524297  0.3384751573988112  0.2940509245378493   F   F   F
  0.2568429759102600  0.6649462999383289  0.7901838933470131   F   F   F
  0.2529394121180317  0.1562873093449539  0.2840876852665346   F   F   F
  0.7510623159636651  0.1596116607317697  0.2145035606395211   F   F   F
  0.7555247274986030  0.6639333368927041  0.7158125975313112   F   F   F
  0.7479632959701874  0.3360897603261606  0.2121739186690874   F   F   F
  0.7462724738129509  0.8417128825471991  0.7148500777188076   F   F   F
  0.2885042855131843  0.7524664077727223  0.0463976430830755   F   F   F
  0.2172356884467135  0.2496284304663945  0.5393513797842715   F   F   F
  0.7093043263502068  0.2481663804243937  0.9622034598380580   F   F   F
  0.7942974361745883  0.7513230483907023  0.4609019017326901   F   F   F
  0.1881711744341388  0.8343749419954989  0.0021778226060718   F   F   F
  0.3062948464290400  0.3465411022069631  0.5118571172612931   F   F   F
  0.1949866550108368  0.6617498275841101  0.0177479080579062   F   F   F
  0.3096695974673835  0.1561121050010783  0.5118616045331521   F   F   F
  0.8101111039741724  0.1637913919468801  0.9860503182230573   F   F   F
  0.6929126081101487  0.6696607064787159  0.4925932591956652   F   F   F
  0.8062449608237472  0.3366667263551264  0.9914791692867411   F   F   F
  0.6886161275789888  0.8290513479376145  0.4814064904657229   F   F   F
  0.0928829567222991  0.7461716379121413  0.0387386179083649   F   F   F
  0.3982723220950959  0.2530474324757677  0.5471786776534771   F   F   F
  0.9072570596007594  0.2532976524726251  0.9619252489831638   F   F   F
  0.5876266781378021  0.7453484795723853  0.4497233596678143   F   F   F
  0.0687018364649390  0.8565644714552434  0.9361017473468465   F   F   F
  0.4262127397230060  0.3634991709275823  0.4426364616543879   F   F   F
  0.0789324429829819  0.6286800076775236  0.9473259100088924   F   F   F
  0.4266627721783678  0.1492972601772138  0.4291522097356264   F   F   F
  0.9275134438606543  0.1402384907537595  0.0619415527824358   F   F   F
  0.5761060442313095  0.6348171943207603  0.5593369407396267   F   F   F
  0.9239732541953956  0.3686364845049113  0.0587615727958237   F   F   F
  0.5732738924991096  0.8521496240660227  0.5645728391136231   F   F   F
  0.1203895903314205  0.8341886615149434  0.7533456350684631   F   F   F
  0.3761261954241775  0.3373584814369863  0.2606992764892055   F   F   F
  0.1278894747516119  0.6619879645227726  0.7661418386364005   F   F   F
  0.3796905115558573  0.1625825826662890  0.2423321249155634   F   F   F
  0.8790911333683056  0.1628041053999283  0.2461253653887709   F   F   F
  0.6267873797840480  0.6622638610182960  0.7410220908023888   F   F   F
  0.8764145727257002  0.3378251895598936  0.2408057046068421   F   F   F
  0.6200669279424531  0.8350958978013310  0.7528161369897859   F   F   F
  0.1989847551613053  0.7494199667244672  0.6627827666492578   F   F   F
  0.2990253943820562  0.2525198056011106  0.1641945122577724   F   F   F
  0.8025984177554690  0.2501127597158472  0.3381667898835872   F   F   F
  0.6993031674516459  0.7493781794815320  0.8405363186900061   F   F   F
  0.4257883108646681  0.0631198821851129  0.6841960279325576   F   F   F
  0.0725118486526668  0.5653033605056947  0.1974751118354021   F   F   F
  0.4269724772269683  0.4376705202173525  0.6970707587579312   F   F   F
  0.0750357724668689  0.9332138545971915  0.1873278944181180   F   F   F
  0.5732315480886427  0.9349618703498805  0.3103023274327228   F   F   F
  0.9273967505434513  0.4352513912738942  0.8077979311279648   F   F   F
  0.5729996385848466  0.5621733449715620  0.3063094033620501   F   F   F
  0.9252288152032406  0.0671304505854451  0.8103093076084562   F   F   F
  0.3209780169447072  0.0321505005619969  0.8387429057060274   F   F   F
  0.1758139922326123  0.5310775946981323  0.3485757648256467   F   F   F
  0.3225654399601154  0.4691972328998659  0.8493126745561526   F   F   F
  0.1772901380763443  0.9708037451914748  0.3408628923886994   F   F   F
  0.6787287077364255  0.9693754270202817  0.1584336030769506   F   F   F
  0.8223727650637258  0.4684697321041753  0.6557601861990605   F   F   F
  0.6780610447063751  0.5294745756438175  0.1547966692399640   F   F   F
  0.8199798134958343  0.0313263353007187  0.6578190961010222   F   F   F
  0.2775114796068507  0.0546209611248543  0.0561245527034515   F   F   F
  0.2245105566392240  0.5503460448384203  0.5679495111831301   F   F   F
  0.2767113671998871  0.4527763568083145  0.0687973562954269   F   F   F
  0.2201668079289476  0.9480186216547111  0.5575607289644111   F   F   F
  0.7212533281299685  0.9495808603876057  0.9401380483787634   F   F   F
  0.7767914690871649  0.4496715143121008  0.4363647513609479   F   F   F
  0.7234754249254181  0.5479732342847186  0.9349903996845441   F   F   F
  0.7786605316698285  0.0505867300688791  0.4383212018889253   F   F   F
  0.1220941990408946  0.0576387049098912  0.0466631400010513   F   F   F
  0.3797845555372348  0.5610148817668019  0.5566131667247518   F   F   F
  0.1213009799100533  0.4443106641581025  0.0539841240294905   F   F   F
  0.3759578025360639  0.9376040324092543  0.5483154531896091   F   F   F
  0.8764204812480898  0.9433072358788692  0.9500100464557306   F   F   F
  0.6213515391853832  0.4387363466425995  0.4483726908400172   F   F   F
  0.8793826204728674  0.5578345201568453  0.9484918528120758   F   F   F
  0.6230221738911155  0.0586622406314419  0.4496777390706441   F   F   F
  0.0744902188995340  0.0371559074206615  0.8240358722072827   F   F   F
  0.4235637521848830  0.5398866475854760  0.3337296258994513   F   F   F
  0.0759048176350419  0.4604813202527893  0.8289217633767336   F   F   F
  0.4233027924460018  0.9627821049300493  0.3277249082812759   F   F   F
  0.9251076904942508  0.9607687653577486  0.1724503445889525   F   F   F
  0.5770858741942959  0.4591426180965712  0.6719831697055341   F   F   F
  0.9234528118482217  0.5409479428639017  0.1747104338456609   F   F   F
  0.5761282011902722  0.0369550265781129  0.6718881891179720   F   F   F
  0.2010404285761140  0.0720125095583342  0.7103396216277389   F   F   F
  0.2969165442657413  0.5770747764946691  0.2209390563555971   F   F   F
  0.2044718029540249  0.4243851977282773  0.7181953388853444   F   F   F
  0.2935969394363696  0.9332380207135884  0.2096879700624328   F   F   F
  0.7983639767094033  0.9268939116986985  0.2860306739789564   F   F   F
  0.7036986157328329  0.4233113159308957  0.7848739549874324   F   F   F
  0.7951861764173955  0.5751117829981993  0.2862378363628437   F   F   F
  0.7008541545789839  0.0726941954250222  0.7868737824766612   F   F   F
  0.4262664088013821  0.8298115736825906  0.6988836165866061   F   F   F
  0.0742322134218441  0.3291228703532951  0.1909259385657123   F   F   F
  0.4301246739219593  0.6717022398534809  0.7005259580848673   F   F   F
  0.0753243053102395  0.1719640704357843  0.1909521143181863   F   F   F
  0.5745683512793534  0.1696551993983846  0.3025228937966205   F   F   F
  0.9264686201513825  0.6719378594883452  0.8081030656139774   F   F   F
  0.5735215580626161  0.3272424444211808  0.3071574977422955   F   F   F
  0.9223548114374438  0.8298810512672290  0.8026652400065899   F   F   F
  0.3147391096778804  0.8745370136037565  0.8329595601659392   F   F   F
  0.1823690054472991  0.3734490658931620  0.3387434043167161   F   F   F
  0.3181473423430958  0.6271469696686083  0.8416342045367529   F   F   F
  0.1851105598361897  0.1275477554201956  0.3319466832164579   F   F   F
  0.6860592145147777  0.1257705389435202  0.1653776562697189   F   F   F
  0.8176341301070593  0.6257443279960810  0.6649875128864480   F   F   F
  0.6837238710401863  0.3725206842549227  0.1646724067101317   F   F   F
  0.8114213188141264  0.8748320416081015  0.6650981989254916   F   F   F
  0.2651365718381555  0.8313390736231625  0.0376669078140992   F   F   F
  0.2302590565476947  0.3295437635472069  0.5410453249088434   F   F   F
  0.2722809601612255  0.6751413802931836  0.0471784283855285   F   F   F
  0.2327096162088864  0.1702120269970280  0.5377307267666396   F   F   F
  0.7322185609318126  0.1704461362496232  0.9604534238153235   F   F   F
  0.7705146488016723  0.6736828544764890  0.4619504275890449   F   F   F
  0.7292672539980742  0.3267691913084079  0.9617143472060619   F   F   F
  0.7672319722372407  0.8278415317355012  0.4589304936318683   F   F   F
  0.1104145274067392  0.8254168647237066  0.0271607086485588   F   F   F
  0.3838126906765140  0.3328167619366837  0.5348648558097508   F   F   F
  0.1159641070614157  0.6676413253773177  0.0363513892824798   F   F   F
  0.3871662695096276  0.1732932068376059  0.5284271164577490   F   F   F
  0.8885910526174641  0.1741792977721488  0.9687623555301030   F   F   F
  0.6141559436682655  0.6690550431865248  0.4658648244022885   F   F   F
  0.8845683336237045  0.3313365873073835  0.9688595797535839   F   F   F
  0.6091543794652523  0.8251223401801155  0.4660951710240866   F   F   F
  0.0669115541808125  0.8776176899835804  0.8175764443746516   F   F   F
  0.4296190028807558  0.3807905306701684  0.3235771733316639   F   F   F
  0.0721479821488273  0.6189158897317455  0.8251068344229040   F   F   F
  0.4298386029629171  0.1219447406414673  0.3147387435382143   F   F   F
  0.9313303493244973  0.1204252960730301  0.1797556231659030   F   F   F
  0.5736727177604237  0.6184698234999217  0.6772257989873083   F   F   F
  0.9294278051149689  0.3821825996667698  0.1786128646006304   F   F   F
  0.5694594489195879  0.8780350589521788  0.6812867800144247   F   F   F
  0.1914489272299136  0.8258397717606414  0.7003502066039502   F   F   F
  0.3043878708277177  0.3283027327780843  0.2088099605364988   F   F   F
  0.1964888968284626  0.6731768764144377  0.7092866084995251   F   F   F
  0.3062584105409698  0.1744275039259762  0.1973711567041434   F   F   F
  0.8075901344211687  0.1731064228962893  0.2981672485844840   F   F   F
  0.6967236050516021  0.6731214957310243  0.7969701441462789   F   F   F
  0.8056989148795495  0.3264429487370535  0.2949566055735460   F   F   F
  0.6921282517628953  0.8264514765819371  0.8014147869168369   F   F   F
  0.3132496696587737  0.7656741973050316  0.3456246357035440   F   F   F
  0.4098540107329498  0.8060537639608611  0.2563331609760766   F   F   F
  0.3712462483070240  0.7217834953210627  0.4754032686048291   F   F   F
  0.4728531383379462  0.7453026646433827  0.4017379702273658   F   F   F
  0.4325200873741792  0.7164004928937047  0.2855004280216420   T   T   T
  0.4249428997860534  0.6669475564524348  0.2498460616336828   T   T   T
  0.4270241767978789  0.7620925774707388  0.1612329128346843   T   T   T
  0.4255362139093677  0.8163631299078350  0.1295879238475242   T   T   T
 
  0.00000000E+00  0.00000000E+00  0.00000000E+00
  0.00000000E+00  0.00000000E+00  0.00000000E+00
  0.00000000E+00  0.00000000E+00  0.00000000E+00
  0.00000000E+00  0.00000000E+00  0.00000000E+00
  0.00000000E+00  0.00000000E+00  0.00000000E+00
  0.00000000E+00  0.00000000E+00  0.00000000E+00
  0.00000000E+00  0.00000000E+00  0.00000000E+00
  0.00000000E+00  0.00000000E+00  0.00000000E+00
  0.00000000E+00  0.00000000E+00  0.00000000E+00
  0.00000000E+00  0.00000000E+00  0.00000000E+00
  0.00000000E+00  0.00000000E+00  0.00000000E+00
  0.00000000E+00  0.00000000E+00  0.00000000E+00
  0.00000000E+00  0.00000000E+00  0.00000000E+00
  0.00000000E+00  0.00000000E+00  0.00000000E+00
  0.00000000E+00  0.00000000E+00  0.00000000E+00
  0.00000000E+00  0.00000000E+00  0.00000000E+00
  0.00000000E+00  0.00000000E+00  0.00000000E+00
  0.00000000E+00  0.00000000E+00  0.00000000E+00
  0.00000000E+00  0.00000000E+00  0.00000000E+00
  0.00000000E+00  0.00000000E+00  0.00000000E+00
  0.00000000E+00  0.00000000E+00  0.00000000E+00
  0.00000000E+00  0.00000000E+00  0.00000000E+00
  0.00000000E+00  0.00000000E+00  0.00000000E+00
  0.00000000E+00  0.00000000E+00  0.00000000E+00
  0.00000000E+00  0.00000000E+00  0.00000000E+00
  0.00000000E+00  0.00000000E+00  0.00000000E+00
  0.00000000E+00  0.00000000E+00  0.00000000E+00
  0.00000000E+00  0.00000000E+00  0.00000000E+00
  0.00000000E+00  0.00000000E+00  0.00000000E+00
  0.00000000E+00  0.00000000E+00  0.00000000E+00
  0.00000000E+00  0.00000000E+00  0.00000000E+00
  0.00000000E+00  0.00000000E+00  0.00000000E+00
  0.00000000E+00  0.00000000E+00  0.00000000E+00
  0.00000000E+00  0.00000000E+00  0.00000000E+00
  0.00000000E+00  0.00000000E+00  0.00000000E+00
  0.00000000E+00  0.00000000E+00  0.00000000E+00
  0.00000000E+00  0.00000000E+00  0.00000000E+00
  0.00000000E+00  0.00000000E+00  0.00000000E+00
  0.00000000E+00  0.00000000E+00  0.00000000E+00
  0.00000000E+00  0.00000000E+00  0.00000000E+00
  0.00000000E+00  0.00000000E+00  0.00000000E+00
  0.00000000E+00  0.00000000E+00  0.00000000E+00
  0.00000000E+00  0.00000000E+00  0.00000000E+00
  0.00000000E+00  0.00000000E+00  0.00000000E+00
  0.00000000E+00  0.00000000E+00  0.00000000E+00
  0.00000000E+00  0.00000000E+00  0.00000000E+00
  0.00000000E+00  0.00000000E+00  0.00000000E+00
  0.00000000E+00  0.00000000E+00  0.00000000E+00
  0.00000000E+00  0.00000000E+00  0.00000000E+00
  0.00000000E+00  0.00000000E+00  0.00000000E+00
  0.00000000E+00  0.00000000E+00  0.00000000E+00
  0.00000000E+00  0.00000000E+00  0.00000000E+00
  0.00000000E+00  0.00000000E+00  0.00000000E+00
  0.00000000E+00  0.00000000E+00  0.00000000E+00
  0.00000000E+00  0.00000000E+00  0.00000000E+00
  0.00000000E+00  0.00000000E+00  0.00000000E+00
  0.00000000E+00  0.00000000E+00  0.00000000E+00
  0.00000000E+00  0.00000000E+00  0.00000000E+00
  0.00000000E+00  0.00000000E+00  0.00000000E+00
  0.00000000E+00  0.00000000E+00  0.00000000E+00
  0.00000000E+00  0.00000000E+00  0.00000000E+00
  0.00000000E+00  0.00000000E+00  0.00000000E+00
  0.00000000E+00  0.00000000E+00  0.00000000E+00
  0.00000000E+00  0.00000000E+00  0.00000000E+00
  0.00000000E+00  0.00000000E+00  0.00000000E+00
  0.00000000E+00  0.00000000E+00  0.00000000E+00
  0.00000000E+00  0.00000000E+00  0.00000000E+00
  0.00000000E+00  0.00000000E+00  0.00000000E+00
  0.00000000E+00  0.00000000E+00  0.00000000E+00
  0.00000000E+00  0.00000000E+00  0.00000000E+00
  0.00000000E+00  0.00000000E+00  0.00000000E+00
  0.00000000E+00  0.00000000E+00  0.00000000E+00
  0.00000000E+00  0.00000000E+00  0.00000000E+00
  0.00000000E+00  0.00000000E+00  0.00000000E+00
  0.00000000E+00  0.00000000E+00  0.00000000E+00
  0.00000000E+00  0.00000000E+00  0.00000000E+00
  0.00000000E+00  0.00000000E+00  0.00000000E+00
  0.00000000E+00  0.00000000E+00  0.00000000E+00
  0.00000000E+00  0.00000000E+00  0.00000000E+00
  0.00000000E+00  0.00000000E+00  0.00000000E+00
  0.00000000E+00  0.00000000E+00  0.00000000E+00
  0.00000000E+00  0.00000000E+00  0.00000000E+00
  0.00000000E+00  0.00000000E+00  0.00000000E+00
  0.00000000E+00  0.00000000E+00  0.00000000E+00
  0.00000000E+00  0.00000000E+00  0.00000000E+00
  0.00000000E+00  0.00000000E+00  0.00000000E+00
  0.00000000E+00  0.00000000E+00  0.00000000E+00
  0.00000000E+00  0.00000000E+00  0.00000000E+00
  0.00000000E+00  0.00000000E+00  0.00000000E+00
  0.00000000E+00  0.00000000E+00  0.00000000E+00
  0.00000000E+00  0.00000000E+00  0.00000000E+00
  0.00000000E+00  0.00000000E+00  0.00000000E+00
  0.00000000E+00  0.00000000E+00  0.00000000E+00
  0.00000000E+00  0.00000000E+00  0.00000000E+00
  0.00000000E+00  0.00000000E+00  0.00000000E+00
  0.00000000E+00  0.00000000E+00  0.00000000E+00
  0.00000000E+00  0.00000000E+00  0.00000000E+00
  0.00000000E+00  0.00000000E+00  0.00000000E+00
  0.00000000E+00  0.00000000E+00  0.00000000E+00
  0.00000000E+00  0.00000000E+00  0.00000000E+00
  0.00000000E+00  0.00000000E+00  0.00000000E+00
  0.00000000E+00  0.00000000E+00  0.00000000E+00
  0.00000000E+00  0.00000000E+00  0.00000000E+00
  0.00000000E+00  0.00000000E+00  0.00000000E+00
  0.00000000E+00  0.00000000E+00  0.00000000E+00
  0.00000000E+00  0.00000000E+00  0.00000000E+00
  0.00000000E+00  0.00000000E+00  0.00000000E+00
  0.00000000E+00  0.00000000E+00  0.00000000E+00
  0.00000000E+00  0.00000000E+00  0.00000000E+00
  0.00000000E+00  0.00000000E+00  0.00000000E+00
  0.00000000E+00  0.00000000E+00  0.00000000E+00
  0.00000000E+00  0.00000000E+00  0.00000000E+00
  0.00000000E+00  0.00000000E+00  0.00000000E+00
  0.00000000E+00  0.00000000E+00  0.00000000E+00
  0.00000000E+00  0.00000000E+00  0.00000000E+00
  0.00000000E+00  0.00000000E+00  0.00000000E+00
  0.00000000E+00  0.00000000E+00  0.00000000E+00
  0.00000000E+00  0.00000000E+00  0.00000000E+00
  0.00000000E+00  0.00000000E+00  0.00000000E+00
  0.00000000E+00  0.00000000E+00  0.00000000E+00
  0.00000000E+00  0.00000000E+00  0.00000000E+00
  0.00000000E+00  0.00000000E+00  0.00000000E+00
  0.00000000E+00  0.00000000E+00  0.00000000E+00
  0.00000000E+00  0.00000000E+00  0.00000000E+00
  0.00000000E+00  0.00000000E+00  0.00000000E+00
  0.00000000E+00  0.00000000E+00  0.00000000E+00
  0.00000000E+00  0.00000000E+00  0.00000000E+00
  0.00000000E+00  0.00000000E+00  0.00000000E+00
  0.00000000E+00  0.00000000E+00  0.00000000E+00
  0.00000000E+00  0.00000000E+00  0.00000000E+00
  0.00000000E+00  0.00000000E+00  0.00000000E+00
  0.00000000E+00  0.00000000E+00  0.00000000E+00
  0.00000000E+00  0.00000000E+00  0.00000000E+00
  0.00000000E+00  0.00000000E+00  0.00000000E+00
  0.00000000E+00  0.00000000E+00  0.00000000E+00
  0.00000000E+00  0.00000000E+00  0.00000000E+00
  0.00000000E+00  0.00000000E+00  0.00000000E+00
  0.00000000E+00  0.00000000E+00  0.00000000E+00
  0.00000000E+00  0.00000000E+00  0.00000000E+00
  0.00000000E+00  0.00000000E+00  0.00000000E+00
  0.00000000E+00  0.00000000E+00  0.00000000E+00
  0.00000000E+00  0.00000000E+00  0.00000000E+00
  0.00000000E+00  0.00000000E+00  0.00000000E+00
  0.00000000E+00  0.00000000E+00  0.00000000E+00
  0.00000000E+00  0.00000000E+00  0.00000000E+00
  0.00000000E+00  0.00000000E+00  0.00000000E+00
  0.00000000E+00  0.00000000E+00  0.00000000E+00
  0.00000000E+00  0.00000000E+00  0.00000000E+00
  0.00000000E+00  0.00000000E+00  0.00000000E+00
  0.00000000E+00  0.00000000E+00  0.00000000E+00
  0.00000000E+00  0.00000000E+00  0.00000000E+00
  0.00000000E+00  0.00000000E+00  0.00000000E+00
  0.00000000E+00  0.00000000E+00  0.00000000E+00
  0.00000000E+00  0.00000000E+00  0.00000000E+00
  0.00000000E+00  0.00000000E+00  0.00000000E+00
  0.00000000E+00  0.00000000E+00  0.00000000E+00
  0.00000000E+00  0.00000000E+00  0.00000000E+00
  0.00000000E+00  0.00000000E+00  0.00000000E+00
  0.00000000E+00  0.00000000E+00  0.00000000E+00
  0.00000000E+00  0.00000000E+00  0.00000000E+00
  0.00000000E+00  0.00000000E+00  0.00000000E+00
  0.00000000E+00  0.00000000E+00  0.00000000E+00
  0.00000000E+00  0.00000000E+00  0.00000000E+00
  0.00000000E+00  0.00000000E+00  0.00000000E+00