O  Si Ru C  H                           
   1.00000000000000     
    20.3096463179830877    0.0000000000000000    0.0000000000000000
     0.0000000000000000   19.8625212307842212    0.0000000000000000
     0.0000000000000000    0.0000000000000000   13.3711533343531652
   O    Si   Ru   C    H 
   192    96     1     2     6
Selective dynamics
Direct
  0.5025909357277101  0.0727798873228238  0.7075249800237629   F   F   F
  0.9974090642722899  0.5727798873228238  0.2075249800237629   F   F   F
  0.5025909357277101  0.4272201126771762  0.7075249800237629   F   F   F
  0.9973897953714967  0.9270673034605252  0.2080268285088991   F   F   F
  0.4972545870672818  0.9271093145946878  0.2923964240612449   F   F   F
  0.0025909357277101  0.4272201126771762  0.7924750199762371   F   F   F
  0.4974090642722899  0.5727798873228238  0.2924750199762371   F   F   F
  0.0025909357277101  0.0727798873228238  0.7924750199762371   F   F   F
  0.3868825154844515  0.0693889629433002  0.7958398315398867   F   F   F
  0.1131174845155485  0.5693889629433002  0.2958398315398867   F   F   F
  0.3868825154844515  0.4306110370566998  0.7958398315398867   F   F   F
  0.1130261124909424  0.9306122459258788  0.2956026547000761   F   F   F
  0.6129955036047647  0.9301840009921136  0.2038651040499317   F   F   F
  0.8868825154844515  0.4306110370566998  0.7041601684601133   F   F   F
  0.6131174845155485  0.5693889629433002  0.2041601684601133   F   F   F
  0.8868825154844515  0.0693889629433002  0.7041601684601133   F   F   F
  0.4023996572529711  0.1395881488352799  0.6299567877606833   F   F   F
  0.0978141246293376  0.6396976397408807  0.1301013067521168   F   F   F
  0.4023996572529711  0.3604118511647201  0.6299567877606833   F   F   F
  0.0974557921600763  0.8603769210463170  0.1300276830789358   F   F   F
  0.5980881833723899  0.8605145767734399  0.3700282243364086   F   F   F
  0.9023996572529711  0.3604118511647201  0.8700432122393167   F   F   F
  0.5994841749540640  0.6385906565525516  0.3699673359529712   F   F   F
  0.9023996572529711  0.1395881488352799  0.8700432122393167   F   F   F
  0.4045031871746829  0.0051825304987858  0.6227513228883907   F   F   F
  0.0954968128253171  0.5051825304987858  0.1227513228883836   F   F   F
  0.4045031871746829  0.4948174695012142  0.6227513228883907   F   F   F
  0.0956496365862520  0.9946487707575287  0.1223828815616059   F   F   F
  0.5960041688043844  0.9950583205019683  0.3778720082153910   F   F   F
  0.9045031871746829  0.4948174695012142  0.8772486771116093   F   F   F
  0.5954968128253171  0.5051825304987858  0.3772486771116164   F   F   F
  0.9045031871746829  0.0051825304987858  0.8772486771116093   F   F   F
  0.3244131055804047  0.0395323330820503  0.9639933782656485   F   F   F
  0.1755868944195953  0.5395323330820503  0.4639933782656414   F   F   F
  0.3244131055804047  0.4604676669179497  0.9639933782656485   F   F   F
  0.1753193967039053  0.9606029828017242  0.4638834041893674   F   F   F
  0.6756778180372152  0.9607354294046857  0.0361745694722586   F   F   F
  0.8244131055804047  0.4604676669179497  0.5360066217343515   F   F   F
  0.6755868944195953  0.5395323330820503  0.0360066217343515   F   F   F
  0.8244131055804047  0.0395323330820503  0.5360066217343515   F   F   F
  0.3248078957952316  0.9538291766333487  0.8093652482545650   F   F   F
  0.1753558411149996  0.4538071248021893  0.3088267361878323   F   F   F
  0.3246441588850004  0.5461928751978107  0.8088267361878323   F   F   F
  0.1753558411149996  0.0461928751978107  0.3088267361878323   F   F   F
  0.6753558411149996  0.0461928751978107  0.1911732638121677   F   F   F
  0.8246441588850004  0.5461928751978107  0.6911732638121677   F   F   F
  0.6753558411149996  0.4538071248021893  0.1911732638121677   F   F   F
  0.8244286772058516  0.9538235164469953  0.6913296509606184   F   F   F
  0.2554253162963604  0.0666022326352760  0.8022081905298890   F   F   F
  0.2445746837036396  0.5666022326352760  0.3022081905298890   F   F   F
  0.2554253162963604  0.4333977673647240  0.8022081905298890   F   F   F
  0.2441188242164074  0.9332349476971942  0.3020727553452502   F   F   F
  0.7444786730968502  0.9332444515589060  0.1977282334668686   F   F   F
  0.7554253162963604  0.4333977673647240  0.6977918094701110   F   F   F
  0.7445746837036396  0.5666022326352760  0.1977918094701110   F   F   F
  0.7554253162963604  0.0666022326352760  0.6977918094701110   F   F   F
  0.2915288497951138  0.1271841775282851  0.1038202525947156   F   F   F
  0.2082950959796648  0.6268997358212403  0.6036353454383061   F   F   F
  0.2915288497951138  0.3728158224717149  0.1038202525947156   F   F   F
  0.2095930060733195  0.8732226081287848  0.6033726322432358   F   F   F
  0.7090026870284376  0.8729775995724083  0.8962043844161300   F   F   F
  0.7915288497951138  0.3728158224717149  0.3961797474052844   F   F   F
  0.7086662584951711  0.6271754295370684  0.8962735850150310   F   F   F
  0.7915288497951138  0.1271841775282851  0.3961797474052844   F   F   F
  0.2010413266345239  0.0428271635220199  0.0290771958813778   F   F   F
  0.2989586733654761  0.5428271635220199  0.5290771958813778   F   F   F
  0.2010413266345239  0.4571728364779801  0.0290771958813778   F   F   F
  0.2987086894592750  0.9591822047983811  0.5272939867421300   F   F   F
  0.7993825481565366  0.9573743653589162  0.9714445617118983   F   F   F
  0.7010413266345239  0.4571728364779801  0.4709228041186222   F   F   F
  0.7989586733654761  0.5428271635220199  0.9709228041186222   F   F   F
  0.7010413266345239  0.0428271635220199  0.4709228041186222   F   F   F
  0.2968895493308423  0.9978563749150382  0.1470275059927886   F   F   F
  0.2031104506691577  0.4978563749150382  0.6470275059927815   F   F   F
  0.2968895493308423  0.5021436250849618  0.1470275059927886   F   F   F
  0.2031104506691577  0.0021436250849618  0.6470275059927815   F   F   F
  0.7031104506691577  0.0021436250849618  0.8529724940072185   F   F   F
  0.7968895493308423  0.5021436250849618  0.3529724940072114   F   F   F
  0.7031104506691577  0.4978563749150382  0.8529724940072185   F   F   F
  0.7968895493308423  0.9978563749150382  0.3529724940072114   F   F   F
  0.1089942560051327  0.1267462740242564  0.0958674480733634   F   F   F
  0.3905896133015929  0.6263433842238300  0.5964642594823601   F   F   F
  0.1089942560051327  0.3732537259757436  0.0958674480733634   F   F   F
  0.3877944028176330  0.8746320006195063  0.5976900184239824   F   F   F
  0.8913616491650629  0.8730781403383929  0.9038526811837784   F   F   F
  0.6089942560051327  0.3732537259757436  0.4041325519266366   F   F   F
  0.8911453485741205  0.6266837895924482  0.9040111683452352   F   F   F
  0.6089942560051327  0.1267462740242564  0.4041325519266366   F   F   F
  0.0831228757301545  0.0463555586530404  0.9432954022258713   F   F   F
  0.4168771242698455  0.5463555586530404  0.4432954022258713   F   F   F
  0.0831228757301545  0.4536444413469596  0.9432954022258713   F   F   F
  0.4173103023936449  0.9536217866400136  0.4433187284690732   F   F   F
  0.9172131137162509  0.9534691548019438  0.0567605477072988   F   F   F
  0.5831228757301545  0.4536444413469596  0.5567045977741287   F   F   F
  0.9168771242698455  0.5463555586530404  0.0567045977741287   F   F   F
  0.5831228757301545  0.0463555586530404  0.5567045977741287   F   F   F
  0.1289595153762306  0.0794086100630622  0.7630589808606629   F   F   F
  0.3710404846237694  0.5794086100630622  0.2630589808606629   F   F   F
  0.1289595153762306  0.4205913899369378  0.7630589808606629   F   F   F
  0.3710017085807280  0.9210444032581648  0.2635340482497028   F   F   F
  0.8707578217122105  0.9206072984829490  0.2366362796373522   F   F   F
  0.6289595153762306  0.4205913899369378  0.7369410191393371   F   F   F
  0.8710404846237694  0.5794086100630622  0.2369410191393371   F   F   F
  0.6289595153762306  0.0794086100630622  0.7369410191393371   F   F   F
  0.0736033219009542  0.9603753834481665  0.7909228475853993   F   F   F
  0.4264236799621770  0.4603034831418356  0.2908788493740602   F   F   F
  0.0735763200378230  0.5396965168581644  0.7908788493740531   F   F   F
  0.4264236799621770  0.0396965168581644  0.2908788493740602   F   F   F
  0.9264236799621770  0.0396965168581644  0.2091211506259398   F   F   F
  0.5735763200378230  0.5396965168581644  0.7091211506259469   F   F   F
  0.9264236799621770  0.4603034831418356  0.2091211506259398   F   F   F
  0.5738934906632451  0.9607635858573573  0.7097565813915736   F   F   F
  0.2164898181671191  0.1361625178643777  0.6465161981987251   F   F   F
  0.2837572472763767  0.6360794103038288  0.1465668669897937   F   F   F
  0.2164898181671191  0.3638374821356223  0.6465161981987251   F   F   F
  0.2840640546642064  0.8639484379438258  0.1467440243222740   F   F   F
  0.7834738646908050  0.8640163501734293  0.3529249114142772   F   F   F
  0.7164898181671191  0.3638374821356223  0.8534838018012749   F   F   F
  0.7828589532573389  0.6359044912704519  0.3535175298963225   F   F   F
  0.7164898181671191  0.1361625178643777  0.8534838018012749   F   F   F
  0.4963416242928460  0.8533181681591131  0.7108967879620351   F   F   F
  0.0041870730047435  0.3531357233755159  0.2140092002379745   F   F   F
  0.4967817753140906  0.6475791667596908  0.7133790715278678   F   F   F
  0.0041870730047435  0.1468642766244841  0.2140092002379745   F   F   F
  0.5041870730047435  0.1468642766244841  0.2859907997620255   F   F   F
  0.9963375931393585  0.6467388890223020  0.7856595581051593   F   F   F
  0.5041870730047435  0.3531357233755159  0.2859907997620255   F   F   F
  0.9961278460428318  0.8528671576430966  0.7854374876087533   F   F   F
  0.3783902924635854  0.8322402506863966  0.7860743843165139   F   F   F
  0.1223394308142645  0.3330694750354013  0.2858074615356969   F   F   F
  0.3785678572838336  0.6673557014972360  0.7856183677426785   F   F   F
  0.1223394308142645  0.1669305249645987  0.2858074615356969   F   F   F
  0.6223394308142645  0.1669305249645987  0.2141925384643031   F   F   F
  0.8778534475966211  0.6668051066329213  0.7139565501654062   F   F   F
  0.6223394308142645  0.3330694750354013  0.2141925384643031   F   F   F
  0.8777066274405243  0.8334133341948800  0.7141117506168086   F   F   F
  0.4252025591913196  0.7497926148093441  0.6438971198944543   F   F   F
  0.0759212098317121  0.2500000000000000  0.1472425182485750   F   F   F
  0.5759212098317121  0.2500000000000000  0.3527574817514250   F   F   F
  0.9241742373891384  0.7502020521319537  0.8521533234228045   F   F   F
  0.3179887236289147  0.8641256976944049  0.9547673846940370   F   F   F
  0.1824716471111429  0.3646363999312143  0.4553082923555465   F   F   F
  0.3179617231216199  0.6358423960784378  0.9547172185397770   F   F   F
  0.1824716471111429  0.1353636000687857  0.4553082923555465   F   F   F
  0.6824716471111429  0.1353636000687857  0.0446917076444535   F   F   F
  0.8170655838783532  0.6346539882891662  0.5446513368845984   F   F   F
  0.6824716471111429  0.3646363999312143  0.0446917076444535   F   F   F
  0.8163435942219053  0.8655645015132407  0.5445533036117354   F   F   F
  0.2482274432815714  0.8460373167320654  0.7898483256787472   F   F   F
  0.2524421241138057  0.3470288878372898  0.2906042087582890   F   F   F
  0.2484436200046503  0.6538810697884401  0.7895451297325877   F   F   F
  0.2524421241138057  0.1529711121627102  0.2906042087582890   F   F   F
  0.7524421241138057  0.1529711121627102  0.2093957912417110   F   F   F
  0.7477555850840076  0.6529781714555227  0.7095291960663133   F   F   F
  0.7524421241138057  0.3470288878372898  0.2093957912417110   F   F   F
  0.7472378689764270  0.8468075428845978  0.7094432057373012   F   F   F
  0.2953059895358692  0.7500600102464148  0.0514144639921383   F   F   F
  0.2047512101703362  0.2500000000000000  0.5502475789369754   F   F   F
  0.7047512101703362  0.2500000000000000  0.9497524210630175   F   F   F
  0.7992989990260497  0.7501690256893525  0.4498605723840754   F   F   F
  0.1961269190742101  0.8332428862530250  0.0065334714162972   F   F   F
  0.3039666124841744  0.3327166449111161  0.5062562090960796   F   F   F
  0.1961359510808336  0.6666767186158182  0.0057598938572667   F   F   F
  0.3039666124841744  0.1672833550888839  0.5062562090960796   F   F   F
  0.8039666124841744  0.1672833550888839  0.9937437909039204   F   F   F
  0.6964387950643953  0.6716657461203326  0.4935276863385241   F   F   F
  0.8039666124841744  0.3327166449111161  0.9937437909039204   F   F   F
  0.6965515395296435  0.8286717911455455  0.4909829638470384   F   F   F
  0.0935700023327826  0.7498445694748526  0.0195722583168916   F   F   F
  0.4068435254241223  0.2500000000000000  0.5199589040338424   F   F   F
  0.9068435254241223  0.2500000000000000  0.9800410959661576   F   F   F
  0.5906077167501493  0.7495974924938835  0.4829208601109585   F   F   F
  0.0812149253087355  0.8694224671166424  0.9339518017801183   F   F   F
  0.4191681511649463  0.3696157380695979  0.4342049483443873   F   F   F
  0.0808624692852788  0.6301038079426249  0.9344991996205749   F   F   F
  0.4191681511649463  0.1303842619304021  0.4342049483443873   F   F   F
  0.9191681511649392  0.1303842619304021  0.0657950516556127   F   F   F
  0.5834491192105631  0.6291563171562018  0.5658244235396523   F   F   F
  0.9191681511649392  0.3696157380695979  0.0657950516556127   F   F   F
  0.5838493327745411  0.8711290996300391  0.5663379811754439   F   F   F
  0.1220631556124872  0.8403235150493913  0.7467242471784417   F   F   F
  0.3785939221413273  0.3399016741142518  0.2475054947775277   F   F   F
  0.1218944980463448  0.6602131185143207  0.7479425898338121   F   F   F
  0.3785939221413273  0.1600983258857482  0.2475054947775277   F   F   F
  0.8785939221413201  0.1600983258857482  0.2524945052224723   F   F   F
  0.6216925118943593  0.6604565890857117  0.7531877874503010   F   F   F
  0.8785939221413201  0.3399016741142518  0.2524945052224723   F   F   F
  0.6213298540789012  0.8392868768022410  0.7539386969617468   F   F   F
  0.2027194264662882  0.7500372991549753  0.6698223366591165   F   F   F
  0.2968133864148328  0.2500000000000000  0.1713179004415224   F   F   F
  0.7968133864148328  0.2500000000000000  0.3286820995584776   F   F   F
  0.7037811535482774  0.7498788974777710  0.8292527585786260   F   F   F
  0.4240099490616913  0.0712238689892644  0.6879805273312769   F   F   F
  0.0759900509383087  0.5712238689892644  0.1879805273312769   F   F   F
  0.4240099490616913  0.4287761310107356  0.6879805273312769   F   F   F
  0.0757772318604069  0.9287373300141368  0.1878905931690653   F   F   F
  0.5764596011544754  0.9290131647716038  0.3119840982460289   F   F   F
  0.9240099490616913  0.4287761310107356  0.8120194726687231   F   F   F
  0.5759900509383087  0.5712238689892644  0.3120194726687231   F   F   F
  0.9240099490616913  0.0712238689892644  0.8120194726687231   F   F   F
  0.3227198167376812  0.0323507114762833  0.8432574132120010   F   F   F
  0.1772801832623188  0.5323507114762833  0.3432574132120010   F   F   F
  0.3227198167376812  0.4676492885237167  0.8432574132120010   F   F   F
  0.1769893062580721  0.9675501928138388  0.3431333940511223   F   F   F
  0.6770598305273481  0.9676307567812259  0.1570638779716163   F   F   F
  0.8227198167376812  0.4676492885237167  0.6567425867879990   F   F   F
  0.6772801832623188  0.5323507114762833  0.1567425867879990   F   F   F
  0.8227198167376812  0.0323507114762833  0.6567425867879990   F   F   F
  0.2779386767015382  0.0519583657721796  0.0611307184073340   F   F   F
  0.2220613232984618  0.5519583657721796  0.5611307184073340   F   F   F
  0.2779386767015382  0.4480416342278204  0.0611307184073340   F   F   F
  0.2221222331004213  0.9485503398305610  0.5608580062990640   F   F   F
  0.7225107455972335  0.9482462075555844  0.9390869778719093   F   F   F
  0.7779386767015382  0.4480416342278204  0.4388692815926660   F   F   F
  0.7220613232984618  0.5519583657721796  0.9388692815926660   F   F   F
  0.7779386767015382  0.0519583657721796  0.4388692815926660   F   F   F
  0.1225104503909904  0.0527779080613016  0.0479940299588080   F   F   F
  0.3774895496090096  0.5527779080612945  0.5479940299588080   F   F   F
  0.1225104503909904  0.4472220919386984  0.0479940299588080   F   F   F
  0.3767929970507353  0.9479258046549290  0.5474336796721744   F   F   F
  0.8779282521444003  0.9470120969153015  0.9519448394861101   F   F   F
  0.6225104503909904  0.4472220919386984  0.4520059700411920   F   F   F
  0.8774895496090096  0.5527779080612945  0.9520059700411920   F   F   F
  0.6225104503909904  0.0527779080613016  0.4520059700411920   F   F   F
  0.0722297752641694  0.0390952680378902  0.8235403254031510   F   F   F
  0.4277702247358306  0.5390952680378902  0.3235403254031510   F   F   F
  0.0722297752641694  0.4609047319621098  0.8235403254031510   F   F   F
  0.4279064806052233  0.9608333898031489  0.3236918474373738   F   F   F
  0.9276853545994683  0.9609399372177165  0.1761823153447040   F   F   F
  0.5722297752641694  0.4609047319621098  0.6764596745968490   F   F   F
  0.9277702247358306  0.5390952680378902  0.1764596745968490   F   F   F
  0.5722297752641694  0.0390952680378902  0.6764596745968490   F   F   F
  0.2011043077742869  0.0703822647950858  0.7135284737427909   F   F   F
  0.2988956922257131  0.5703822647950858  0.2135284737427909   F   F   F
  0.2011043077742869  0.4296177352049142  0.7135284737427909   F   F   F
  0.2990235253683267  0.9299657309722278  0.2138967997034342   F   F   F
  0.7990435685694592  0.9298897200145646  0.2860983296439201   F   F   F
  0.7011043077742869  0.4296177352049142  0.7864715262572091   F   F   F
  0.7988956922257131  0.5703822647950858  0.2864715262572091   F   F   F
  0.7011043077742869  0.0703822647950858  0.7864715262572091   F   F   F
  0.4221455898417190  0.8286291450158885  0.6835533325256051   F   F   F
  0.0776147133579599  0.3277153649932174  0.1851848138450478   F   F   F
  0.4230568859638879  0.6721553956185957  0.6843170982401929   F   F   F
  0.0776147133579599  0.1722846350067826  0.1851848138450478   F   F   F
  0.5776147133579599  0.1722846350067826  0.3148151861549522   F   F   F
  0.9225178738930921  0.6723341823331097  0.8149095729088813   F   F   F
  0.5776147133579599  0.3277153649932174  0.3148151861549522   F   F   F
  0.9224776700429089  0.8276778687986948  0.8142630463306233   F   F   F
  0.3172343132917064  0.8739755613221121  0.8339590914149753   F   F   F
  0.1830680121786585  0.3744867008663704  0.3347839836351412   F   F   F
  0.3172423481539184  0.6257784803479325  0.8342043055531221   F   F   F
  0.1830680121786585  0.1255132991336296  0.3347839836351412   F   F   F
  0.6830680121786585  0.1255132991336296  0.1652160163648588   F   F   F
  0.8167121499156522  0.6257599417795703  0.6654349248542388   F   F   F
  0.6830680121786585  0.3744867008663704  0.1652160163648588   F   F   F
  0.8167634648607418  0.8746141391592772  0.6654161376113592   F   F   F
  0.2731623173335507  0.8279047077766322  0.0389803248481471   F   F   F
  0.2273307924942145  0.3277299682844301  0.5397963552221228   F   F   F
  0.2729013823259550  0.6719432507911165  0.0396301509179509   F   F   F
  0.2273307924942145  0.1722700317155699  0.5397963552221228   F   F   F
  0.7273307924942145  0.1722700317155699  0.9602036447778772   F   F   F
  0.7734171696011316  0.6732567224207386  0.4600341581194698   F   F   F
  0.7273307924942145  0.3277299682844301  0.9602036447778772   F   F   F
  0.7738002269503284  0.8270323913339368  0.4593893615121374   F   F   F
  0.1169595509222887  0.8279014348749385  0.0226530719089340   F   F   F
  0.3829046392724536  0.3279865241180246  0.5228273843902258   F   F   F
  0.1172403737245276  0.6720108954495885  0.0228292855432528   F   F   F
  0.3829046392724536  0.1720134758819754  0.5228273843902258   F   F   F
  0.8829046392724536  0.1720134758819754  0.9771726156097742   F   F   F
  0.6174475540972040  0.6725414790898583  0.4773727811641066   F   F   F
  0.8829046392724536  0.3279865241180246  0.9771726156097742   F   F   F
  0.6175873394101572  0.8278177582219968  0.4769634959465137   F   F   F
  0.0689071147170992  0.8804157011497935  0.8145460535107603   F   F   F
  0.4316422255872467  0.3805306503245163  0.3150522314059216   F   F   F
  0.0686240493219330  0.6195322757450441  0.8152118440159200   F   F   F
  0.4316422255872467  0.1194693496754837  0.3150522314059216   F   F   F
  0.9316422255872467  0.1194693496754837  0.1849477685940784   F   F   F
  0.5694601612911967  0.6191842926664108  0.6851306126234178   F   F   F
  0.9316422255872467  0.3805306503245163  0.1849477685940784   F   F   F
  0.5691124514556805  0.8813814002343108  0.6851722534337910   F   F   F
  0.1957205112895934  0.8283705456753125  0.7027129280373785   F   F   F
  0.3049811923033445  0.3281471210548332  0.2034825387585641   F   F   F
  0.1952275199635736  0.6721988246442407  0.7026490611110461   F   F   F
  0.3049811923033445  0.1718528789451668  0.2034825387585641   F   F   F
  0.8049811923033445  0.1718528789451668  0.2965174612414359   F   F   F
  0.6954847979231218  0.6719906565013787  0.7966164971235230   F   F   F
  0.8049811923033445  0.3281471210548332  0.2965174612414359   F   F   F
  0.6956507347184910  0.8279340244583153  0.7967677989491904   F   F   F
  0.4479205070594361  0.7507186776260042  0.4498962296543354   F   F   F
  0.3854948626718482  0.7508051886831382  0.3344262958851871   T   T   T
  0.4727773279501832  0.7493712724443000  0.2805825955641978   T   T   T
  0.3617208780161292  0.7652916126442619  0.4208307927517296   T   T   T
  0.3705344952615377  0.7948313891450169  0.2889205867697981   T   T   T
  0.3610588962556349  0.7045849042311971  0.3110575996180600   T   T   T
  0.4851089820815915  0.8000383647919307  0.2526953243208183   T   T   T
  0.5178406713814283  0.7217819260206895  0.3031411863574291   T   T   T
  0.4512294465828077  0.7182665921580380  0.2182775347543881   T   T   T
 
  0.00000000E+00  0.00000000E+00  0.00000000E+00
  0.00000000E+00  0.00000000E+00  0.00000000E+00
  0.00000000E+00  0.00000000E+00  0.00000000E+00
  0.00000000E+00  0.00000000E+00  0.00000000E+00
  0.00000000E+00  0.00000000E+00  0.00000000E+00
  0.00000000E+00  0.00000000E+00  0.00000000E+00
  0.00000000E+00  0.00000000E+00  0.00000000E+00
  0.00000000E+00  0.00000000E+00  0.00000000E+00
  0.00000000E+00  0.00000000E+00  0.00000000E+00
  0.00000000E+00  0.00000000E+00  0.00000000E+00
  0.00000000E+00  0.00000000E+00  0.00000000E+00
  0.00000000E+00  0.00000000E+00  0.00000000E+00
  0.00000000E+00  0.00000000E+00  0.00000000E+00
  0.00000000E+00  0.00000000E+00  0.00000000E+00
  0.00000000E+00  0.00000000E+00  0.00000000E+00
  0.00000000E+00  0.00000000E+00  0.00000000E+00
  0.00000000E+00  0.00000000E+00  0.00000000E+00
  0.00000000E+00  0.00000000E+00  0.00000000E+00
  0.00000000E+00  0.00000000E+00  0.00000000E+00
  0.00000000E+00  0.00000000E+00  0.00000000E+00
  0.00000000E+00  0.00000000E+00  0.00000000E+00
  0.00000000E+00  0.00000000E+00  0.00000000E+00
  0.00000000E+00  0.00000000E+00  0.00000000E+00
  0.00000000E+00  0.00000000E+00  0.00000000E+00
  0.00000000E+00  0.00000000E+00  0.00000000E+00
  0.00000000E+00  0.00000000E+00  0.00000000E+00
  0.00000000E+00  0.00000000E+00  0.00000000E+00
  0.00000000E+00  0.00000000E+00  0.00000000E+00
  0.00000000E+00  0.00000000E+00  0.00000000E+00
  0.00000000E+00  0.00000000E+00  0.00000000E+00
  0.00000000E+00  0.00000000E+00  0.00000000E+00
  0.00000000E+00  0.00000000E+00  0.00000000E+00
  0.00000000E+00  0.00000000E+00  0.00000000E+00
  0.00000000E+00  0.00000000E+00  0.00000000E+00
  0.00000000E+00  0.00000000E+00  0.00000000E+00
  0.00000000E+00  0.00000000E+00  0.00000000E+00
  0.00000000E+00  0.00000000E+00  0.00000000E+00
  0.00000000E+00  0.00000000E+00  0.00000000E+00
  0.00000000E+00  0.00000000E+00  0.00000000E+00
  0.00000000E+00  0.00000000E+00  0.00000000E+00
  0.00000000E+00  0.00000000E+00  0.00000000E+00
  0.00000000E+00  0.00000000E+00  0.00000000E+00
  0.00000000E+00  0.00000000E+00  0.00000000E+00
  0.00000000E+00  0.00000000E+00  0.00000000E+00
  0.00000000E+00  0.00000000E+00  0.00000000E+00
  0.00000000E+00  0.00000000E+00  0.00000000E+00
  0.00000000E+00  0.00000000E+00  0.00000000E+00
  0.00000000E+00  0.00000000E+00  0.00000000E+00
  0.00000000E+00  0.00000000E+00  0.00000000E+00
  0.00000000E+00  0.00000000E+00  0.00000000E+00
  0.00000000E+00  0.00000000E+00  0.00000000E+00
  0.00000000E+00  0.00000000E+00  0.00000000E+00
  0.00000000E+00  0.00000000E+00  0.00000000E+00
  0.00000000E+00  0.00000000E+00  0.00000000E+00
  0.00000000E+00  0.00000000E+00  0.00000000E+00
  0.00000000E+00  0.00000000E+00  0.00000000E+00
  0.00000000E+00  0.00000000E+00  0.00000000E+00
  0.00000000E+00  0.00000000E+00  0.00000000E+00
  0.00000000E+00  0.00000000E+00  0.00000000E+00
  0.00000000E+00  0.00000000E+00  0.00000000E+00
  0.00000000E+00  0.00000000E+00  0.00000000E+00
  0.00000000E+00  0.00000000E+00  0.00000000E+00
  0.00000000E+00  0.00000000E+00  0.00000000E+00
  0.00000000E+00  0.00000000E+00  0.00000000E+00
  0.00000000E+00  0.00000000E+00  0.00000000E+00
  0.00000000E+00  0.00000000E+00  0.00000000E+00
  0.00000000E+00  0.00000000E+00  0.00000000E+00
  0.00000000E+00  0.00000000E+00  0.00000000E+00
  0.00000000E+00  0.00000000E+00  0.00000000E+00
  0.00000000E+00  0.00000000E+00  0.00000000E+00
  0.00000000E+00  0.00000000E+00  0.00000000E+00
  0.00000000E+00  0.00000000E+00  0.00000000E+00
  0.00000000E+00  0.00000000E+00  0.00000000E+00
  0.00000000E+00  0.00000000E+00  0.00000000E+00
  0.00000000E+00  0.00000000E+00  0.00000000E+00
  0.00000000E+00  0.00000000E+00  0.00000000E+00
  0.00000000E+00  0.00000000E+00  0.00000000E+00
  0.00000000E+00  0.00000000E+00  0.00000000E+00
  0.00000000E+00  0.00000000E+00  0.00000000E+00
  0.00000000E+00  0.00000000E+00  0.00000000E+00
  0.00000000E+00  0.00000000E+00  0.00000000E+00
  0.00000000E+00  0.00000000E+00  0.00000000E+00
  0.00000000E+00  0.00000000E+00  0.00000000E+00
  0.00000000E+00  0.00000000E+00  0.00000000E+00
  0.00000000E+00  0.00000000E+00  0.00000000E+00
  0.00000000E+00  0.00000000E+00  0.00000000E+00
  0.00000000E+00  0.00000000E+00  0.00000000E+00
  0.00000000E+00  0.00000000E+00  0.00000000E+00
  0.00000000E+00  0.00000000E+00  0.00000000E+00
  0.00000000E+00  0.00000000E+00  0.00000000E+00
  0.00000000E+00  0.00000000E+00  0.00000000E+00
  0.00000000E+00  0.00000000E+00  0.00000000E+00
  0.00000000E+00  0.00000000E+00  0.00000000E+00
  0.00000000E+00  0.00000000E+00  0.00000000E+00
  0.00000000E+00  0.00000000E+00  0.00000000E+00
  0.00000000E+00  0.00000000E+00  0.00000000E+00
  0.00000000E+00  0.00000000E+00  0.00000000E+00
  0.00000000E+00  0.00000000E+00  0.00000000E+00
  0.00000000E+00  0.00000000E+00  0.00000000E+00
  0.00000000E+00  0.00000000E+00  0.00000000E+00
  0.00000000E+00  0.00000000E+00  0.00000000E+00
  0.00000000E+00  0.00000000E+00  0.00000000E+00
  0.00000000E+00  0.00000000E+00  0.00000000E+00
  0.00000000E+00  0.00000000E+00  0.00000000E+00
  0.00000000E+00  0.00000000E+00  0.00000000E+00
  0.00000000E+00  0.00000000E+00  0.00000000E+00
  0.00000000E+00  0.00000000E+00  0.00000000E+00
  0.00000000E+00  0.00000000E+00  0.00000000E+00
  0.00000000E+00  0.00000000E+00  0.00000000E+00
  0.00000000E+00  0.00000000E+00  0.00000000E+00
  0.00000000E+00  0.00000000E+00  0.00000000E+00
  0.00000000E+00  0.00000000E+00  0.00000000E+00
  0.00000000E+00  0.00000000E+00  0.00000000E+00
  0.00000000E+00  0.00000000E+00  0.00000000E+00
  0.00000000E+00  0.00000000E+00  0.00000000E+00
  0.00000000E+00  0.00000000E+00  0.00000000E+00
  0.00000000E+00  0.00000000E+00  0.00000000E+00
  0.00000000E+00  0.00000000E+00  0.00000000E+00
  0.00000000E+00  0.00000000E+00  0.00000000E+00
  0.00000000E+00  0.00000000E+00  0.00000000E+00
  0.00000000E+00  0.00000000E+00  0.00000000E+00
  0.00000000E+00  0.00000000E+00  0.00000000E+00
  0.00000000E+00  0.00000000E+00  0.00000000E+00
  0.00000000E+00  0.00000000E+00  0.00000000E+00
  0.00000000E+00  0.00000000E+00  0.00000000E+00
  0.00000000E+00  0.00000000E+00  0.00000000E+00
  0.00000000E+00  0.00000000E+00  0.00000000E+00
  0.00000000E+00  0.00000000E+00  0.00000000E+00
  0.00000000E+00  0.00000000E+00  0.00000000E+00
  0.00000000E+00  0.00000000E+00  0.00000000E+00
  0.00000000E+00  0.00000000E+00  0.00000000E+00
  0.00000000E+00  0.00000000E+00  0.00000000E+00
  0.00000000E+00  0.00000000E+00  0.00000000E+00
  0.00000000E+00  0.00000000E+00  0.00000000E+00
  0.00000000E+00  0.00000000E+00  0.00000000E+00
  0.00000000E+00  0.00000000E+00  0.00000000E+00
  0.00000000E+00  0.00000000E+00  0.00000000E+00
  0.00000000E+00  0.00000000E+00  0.00000000E+00
  0.00000000E+00  0.00000000E+00  0.00000000E+00
  0.00000000E+00  0.00000000E+00  0.00000000E+00
  0.00000000E+00  0.00000000E+00  0.00000000E+00
  0.00000000E+00  0.00000000E+00  0.00000000E+00
  0.00000000E+00  0.00000000E+00  0.00000000E+00
  0.00000000E+00  0.00000000E+00  0.00000000E+00
  0.00000000E+00  0.00000000E+00  0.00000000E+00
  0.00000000E+00  0.00000000E+00  0.00000000E+00
  0.00000000E+00  0.00000000E+00  0.00000000E+00
  0.00000000E+00  0.00000000E+00  0.00000000E+00
  0.00000000E+00  0.00000000E+00  0.00000000E+00
  0.00000000E+00  0.00000000E+00  0.00000000E+00
  0.00000000E+00  0.00000000E+00  0.00000000E+00
  0.00000000E+00  0.00000000E+00  0.00000000E+00
  0.00000000E+00  0.00000000E+00  0.00000000E+00
  0.00000000E+00  0.00000000E+00  0.00000000E+00
  0.00000000E+00  0.00000000E+00  0.00000000E+00
  0.00000000E+00  0.00000000E+00  0.00000000E+00
  0.00000000E+00  0.00000000E+00  0.00000000E+00
  0.00000000E+00  0.00000000E+00  0.00000000E+00
  0.00000000E+00  0.00000000E+00  0.00000000E+00
  0.00000000E+00  0.00000000E+00  0.00000000E+00
  0.00000000E+00  0.00000000E+00  0.00000000E+00
  0.00000000E+00  0.00000000E+00  0.00000000E+00