O  Si Ru C  H                           
   1.00000000000000     
    20.3096463179830877    0.0000000000000000    0.0000000000000000
     0.0000000000000000   19.8625212307842212    0.0000000000000000
     0.0000000000000000    0.0000000000000000   13.3711533343531652
   O    Si   Ru   C    H 
   192    96     2     2     2
Selective dynamics
Direct
  0.5030313030463844  0.0735106690399903  0.7068745519444732   F   F   F
  0.9971415859656488  0.5712167683284357  0.2104622636296674   T   T   T
  0.5031612482638153  0.4265249879294473  0.7071339720137715   F   F   F
  0.9970564117976510  0.9282263346571351  0.2093276532906507   T   T   T
  0.4974991005325942  0.9268063959424996  0.2904580347149405   T   T   T
  0.0031576002120559  0.4269577279233800  0.7921119442759945   F   F   F
  0.4975870682460659  0.5732659607654027  0.2912741530154312   T   T   T
  0.0031121367377978  0.0729635295977431  0.7917190270513856   F   F   F
  0.3877396601115990  0.0669722638643648  0.7965917514696343   F   F   F
  0.1133534161744244  0.5682786543252034  0.2964412778151432   T   T   T
  0.3876152601350853  0.4330592463989618  0.7967882760301848   F   F   F
  0.1131614516515149  0.9317499034029646  0.2961534702560291   T   T   T
  0.6129279320959290  0.9320793896928132  0.2022692174008603   T   T   T
  0.8876673028623188  0.4326986086359312  0.7035434780444092   F   F   F
  0.6130998088111822  0.5681119583729082  0.2028482611139462   T   T   T
  0.8876380518643714  0.0674147185064342  0.7034817921422842   F   F   F
  0.4008861467100857  0.1390070459433872  0.6318148236920109   F   F   F
  0.0953538508594699  0.6394698782021739  0.1315020440276107   T   T   T
  0.4010453284459459  0.3610601064722800  0.6319857145392334   F   F   F
  0.0958903171355494  0.8603610286071703  0.1314912918379371   T   T   T
  0.5989937828281288  0.8610573316296608  0.3678955382877220   T   T   T
  0.9019248301897420  0.3609962091100627  0.8686326530392705   F   F   F
  0.5991167305490689  0.6390897319401773  0.3684264107554311   T   T   T
  0.9020708493505865  0.1389942276315352  0.8686180447233340   F   F   F
  0.4053838258615627  0.0030964802082494  0.6200898825680667   F   F   F
  0.0949873773206468  0.5048225539497344  0.1228527682593468   T   T   T
  0.4061052788714712  0.4940761369596960  0.6218560383644589   T   T   T
  0.0949058833148364  0.9950576974891489  0.1224834475421958   T   T   T
  0.5947741311922708  0.9954538708162145  0.3756572127112846   T   T   T
  0.9063317412612522  0.4955419318898805  0.8779952594915877   T   T   T
  0.5947975995550882  0.5046518251209572  0.3761089200346432   T   T   T
  0.9063799893788769  0.0047320603915040  0.8774911092499948   F   F   F
  0.3239642454445999  0.0382786613846804  0.9639083196167064   F   F   F
  0.1762594912895470  0.5382429615771367  0.4641015761146468   T   T   T
  0.3240536888823513  0.4618127771012368  0.9639224299460736   F   F   F
  0.1753399517872208  0.9620424629703546  0.4641300301682548   T   T   T
  0.6769678624935946  0.9622014641816030  0.0356229461630599   T   T   T
  0.8237152592375644  0.4614770907271162  0.5363271048639505   T   T   T
  0.6769787248047624  0.5382813251408846  0.0358633301884170   T   T   T
  0.8238561094728567  0.0383562688541019  0.5363224145181178   F   F   F
  0.3226703484804085  0.9539444601989909  0.8077130987607829   T   T   T
  0.1777145710681580  0.4536730093552137  0.3067687995372808   F   F   F
  0.3224101157023479  0.5461537434378837  0.8075259716674325   T   T   T
  0.1777939901313488  0.0462604421288830  0.3067985906505513   F   F   F
  0.6783986860282312  0.0465090468632923  0.1930217460298493   F   F   F
  0.8215669347746920  0.5462805425362415  0.6932335936378119   T   T   T
  0.6782839059370916  0.4536425633933861  0.1928452912208581   T   T   T
  0.8216266415539917  0.9536523821649944  0.6933361551150758   T   T   T
  0.2565014500670557  0.0683906856802849  0.8020917560852610   F   F   F
  0.2448503272160336  0.5675610560191875  0.3030102954090924   T   T   T
  0.2564760644620563  0.4316727096003348  0.8022078039277432   F   F   F
  0.2447827943891167  0.9323974571836848  0.3031927298785614   T   T   T
  0.7442824721167147  0.9318993417421457  0.1978116103697955   T   T   T
  0.7561771163019273  0.4313511159110917  0.6984307618426939   F   F   F
  0.7444974972763478  0.5680749423821656  0.1979554360810343   T   T   T
  0.7561765337771575  0.0686818135388378  0.6983382906814199   F   F   F
  0.2922617827492573  0.1258532659355254  0.1038860400751958   F   F   F
  0.2083399749541413  0.6261448459709009  0.6046696907256541   T   T   T
  0.2923180737403897  0.3742731211530099  0.1039204615154716   F   F   F
  0.2061464237088494  0.8740585709802291  0.6049610762016970   T   T   T
  0.7081079266292919  0.8740049331940343  0.8952609736895747   T   T   T
  0.7921449214838177  0.3739500914013689  0.3953633541265233   F   F   F
  0.7087325916530238  0.6264770604457510  0.8957297009316195   T   T   T
  0.7919062626643267  0.1260385602961449  0.3953122824041913   F   F   F
  0.2010324677637598  0.0429821821564573  0.0292316340741934   F   F   F
  0.2994889971476299  0.5419073703579234  0.5296570337672456   T   T   T
  0.2011892082080564  0.4571736642178621  0.0293906479419377   F   F   F
  0.2983237775576102  0.9562280837491580  0.5285135462763449   T   T   T
  0.7999017832088410  0.9571792146728637  0.9687393994078498   T   T   T
  0.7006917993708490  0.4574144935436346  0.4699749971219411   T   T   T
  0.8001371149594740  0.5433608107375992  0.9698360948235032   T   T   T
  0.7005791123505887  0.0425542466542694  0.4703536592968049   F   F   F
  0.2955172488865000  0.9965984473794440  0.1460020838295667   T   T   T
  0.2037856644596327  0.4969060412065331  0.6470211758788542   T   T   T
  0.2960515528916248  0.5035878493093964  0.1460151583652340   T   T   T
  0.2042027830927893  0.0034729223369752  0.6472949225112217   F   F   F
  0.7035449983403126  0.0033068162155274  0.8522342725990555   F   F   F
  0.7966420854488164  0.5038155722308376  0.3536800076017285   T   T   T
  0.7040995586416051  0.4970603674621456  0.8526217435036819   T   T   T
  0.7964456661117364  0.9959829915132665  0.3537500254774096   T   T   T
  0.1092787643951922  0.1272218927719919  0.0964111710485511   F   F   F
  0.3892081932247478  0.6256968078125090  0.6013872408280898   T   T   T
  0.1095558046195038  0.3726803302073378  0.0968103022669595   F   F   F
  0.3879939245426948  0.8718187801113834  0.5988754108621439   T   T   T
  0.8917392789522176  0.8726165184344766  0.9019318511275514   T   T   T
  0.6094487866014831  0.3723579127007142  0.4039880707813168   F   F   F
  0.8922059700298796  0.6275743522325905  0.9021448352640119   T   T   T
  0.6094519637304572  0.1276622064690542  0.4039118272963904   F   F   F
  0.0830367676503485  0.0475303850093809  0.9435118313257789   F   F   F
  0.4174730309962252  0.5503971543586884  0.4442541381629473   T   T   T
  0.0831529835080858  0.4523571164826095  0.9437828781077968   F   F   F
  0.4161418394174483  0.9478162988782101  0.4423268744070743   T   T   T
  0.9172305311811815  0.9514753053431653  0.0561428712985514   T   T   T
  0.5828453071105741  0.4530667886422961  0.5554869172721340   F   F   F
  0.9176427720999891  0.5489809427139698  0.0566327845646252   T   T   T
  0.5826855380770084  0.0467952745613616  0.5551469799886135   F   F   F
  0.1293595189807633  0.0799317759667559  0.7636725818980707   F   F   F
  0.3704654194545611  0.5803668117094311  0.2618512812278565   T   T   T
  0.1293763873785920  0.4200604766704998  0.7638980097047323   F   F   F
  0.3704662588208859  0.9195173428240637  0.2595117262588862   T   T   T
  0.8707995127028061  0.9197768921474434  0.2363769632717484   T   T   T
  0.6295334062813751  0.4207410458544985  0.7357987562723025   F   F   F
  0.8709177255981287  0.5805568968072896  0.2368536411154210   T   T   T
  0.6295569832641803  0.0793334188124675  0.7353885378913461   F   F   F
  0.0752908918679139  0.9605718664988768  0.7927063374146902   T   T   T
  0.4241856898306011  0.4626636805394568  0.2948685087304384   F   F   F
  0.0750227941890738  0.5392888009848622  0.7928265449810725   T   T   T
  0.4242587491423677  0.0372194508485748  0.2946661929635823   F   F   F
  0.9247978710087281  0.0393532421634148  0.2067296739368913   F   F   F
  0.5721366928466182  0.5395766092789583  0.7076686132407889   T   T   T
  0.9239633233656066  0.4606821292537845  0.2067703307277870   T   T   T
  0.5717052134673621  0.9604518496446207  0.7078475963452970   T   T   T
  0.2161545081204039  0.1373190900324630  0.6464056957070596   F   F   F
  0.2806894894358285  0.6376498949501156  0.1471624989243923   T   T   T
  0.2161478773700267  0.3627623699130638  0.6465107213581334   F   F   F
  0.2798256169641694  0.8625430489853967  0.1465460271961634   T   T   T
  0.7841512594950552  0.8618285031097571  0.3524895296761937   T   T   T
  0.7150684135687442  0.3628557911396939  0.8533643378419669   F   F   F
  0.7838481990875910  0.6380028264963131  0.3528973643726408   T   T   T
  0.7148529442656795  0.1372972393045799  0.8532342616008322   F   F   F
  0.4966076320796965  0.8506600794653736  0.7109230508358018   T   T   T
  0.0034939034584056  0.3546322947264997  0.2132637366473773   F   F   F
  0.4973327652139322  0.6493261466958454  0.7128976258900870   T   T   T
  0.0033215068966896  0.1454612786086642  0.2131935530125944   F   F   F
  0.5039536987292550  0.1447736555636823  0.2865104364463278   F   F   F
  0.9964532877534550  0.6455541287413699  0.7809623129235106   T   T   T
  0.5039265236382207  0.3553387685236018  0.2865049941995892   F   F   F
  0.9958871037682328  0.8550167268532816  0.7808684023628413   T   T   T
  0.3803173261333215  0.8340510171309083  0.7905486002590537   T   T   T
  0.1208155372344848  0.3338686933523647  0.2869750188017264   F   F   F
  0.3807770656569650  0.6656774257651028  0.7918317679678206   T   T   T
  0.1208340467239637  0.1659715768643224  0.2868301920377831   F   F   F
  0.6212203896049786  0.1658088695293785  0.2128885424246718   F   F   F
  0.8784361928649635  0.6661464593408140  0.7117552976414517   T   T   T
  0.6212738100149693  0.3342631154336644  0.2129184473178825   F   F   F
  0.8778454398063010  0.8334933810527699  0.7118222949103362   T   T   T
  0.4202143607957856  0.7493110606080001  0.6468199063852437   T   T   T
  0.0745810474820559  0.2499307161348341  0.1492249431245867   F   F   F
  0.5738720011643110  0.2500030646116826  0.3499327488768742   F   F   F
  0.9264741738250775  0.7500712027215325  0.8483441559745135   T   T   T
  0.3164493078419994  0.8656888199549989  0.9559838443466391   T   T   T
  0.1831956605671579  0.3656587842667065  0.4548394733678762   F   F   F
  0.3163957475312517  0.6339730861108205  0.9565175879402333   T   T   T
  0.1831027746265690  0.1344857704105991  0.4547365006538442   F   F   F
  0.6831065476514766  0.1344789425678883  0.0452691167471571   F   F   F
  0.8167209343931793  0.6334849543015230  0.5444796628964903   T   T   T
  0.6831333500025778  0.3655448939084849  0.0454531386542314   F   F   F
  0.8166019652235971  0.8666313569496079  0.5443831952680537   T   T   T
  0.2503960409585210  0.8438106764533277  0.7875473070964051   T   T   T
  0.2512951275343198  0.3439450389403760  0.2887717691088980   F   F   F
  0.2508122505686782  0.6569162503328468  0.7880699916429578   T   T   T
  0.2512516449314717  0.1561439758620224  0.2886686142873245   F   F   F
  0.7514291085594778  0.1563556074323458  0.2107574906916767   F   F   F
  0.7485037739159559  0.6562050789011794  0.7101136499305244   T   T   T
  0.7514832660278472  0.3437114194612150  0.2109578943944683   F   F   F
  0.7478346271987117  0.8442914782977822  0.7096668517131215   T   T   T
  0.2852661500991362  0.7499705942877105  0.0418504590066767   T   T   T
  0.2037053668052877  0.2501151051252393  0.5472928554448941   F   F   F
  0.7036655198355461  0.2500842704474522  0.9524455460516634   F   F   F
  0.7964442242456675  0.7500249952788227  0.4541124957769280   T   T   T
  0.1931025044386322  0.8401434880249711  0.0022587951894176   T   T   T
  0.3042017239702588  0.3320939981362798  0.5062506476635917   F   F   F
  0.1932086597807430  0.6595656372074196  0.0035245496769968   T   T   T
  0.3041312995958876  0.1679860484252700  0.5060874384808756   F   F   F
  0.8038131655503591  0.1675462747518637  0.9919445251029586   F   F   F
  0.6961360982985072  0.6677967404409837  0.4934187579914007   T   T   T
  0.8038388891638490  0.3323956695168064  0.9923154298445098   F   F   F
  0.6961442564807909  0.8325103833472466  0.4927205195915214   T   T   T
  0.0961095966013818  0.7499296020658132  0.0224145897260167   T   T   T
  0.4071145367927755  0.2500694196672768  0.5234447328220568   F   F   F
  0.9068397093014866  0.2499881193792035  0.9771561512686091   F   F   F
  0.5936425372639200  0.7501919001852949  0.4798801629460265   T   T   T
  0.0747960659575033  0.8682710347943839  0.9361151021852326   T   T   T
  0.4196459201373841  0.3690752399953681  0.4362266841229854   F   F   F
  0.0754734599321847  0.6316899040026971  0.9356988991720242   T   T   T
  0.4196038321134807  0.1308763177411905  0.4362375001731493   F   F   F
  0.9187875022797272  0.1307596747704309  0.0643323129355835   F   F   F
  0.5812713191116077  0.6300771656056599  0.5643720027489585   T   T   T
  0.9189500169331950  0.3691799647486604  0.0643166511069353   F   F   F
  0.5814275278257105  0.8705779495758283  0.5638254982264065   T   T   T
  0.1228173676672816  0.8397195084301106  0.7530979813725196   T   T   T
  0.3781959802803883  0.3406096199531632  0.2497065289334657   F   F   F
  0.1234522353074243  0.6593721763718737  0.7519367758666066   T   T   T
  0.3780959397066255  0.1594018407642182  0.2496633811281015   F   F   F
  0.8779628349424726  0.1597729085419601  0.2514304774730292   F   F   F
  0.6222463101506108  0.6591164272841334  0.7515050794222651   T   T   T
  0.8780165275730170  0.3400325141188674  0.2513553918305860   F   F   F
  0.6215228553458870  0.8408210052231433  0.7512023545939158   T   T   T
  0.2007697813643450  0.7500316540039546  0.6678238406606316   T   T   T
  0.2995748252024981  0.2500708546034573  0.1676692837618106   F   F   F
  0.7991001789827124  0.2499839724268611  0.3330467416247913   F   F   F
  0.7007481516267134  0.7502342350887884  0.8318168325315101   T   T   T
  0.4245712316044532  0.0716962683274645  0.6893600219172740   F   F   F
  0.0754725103930555  0.5704602992131810  0.1892427332605271   T   T   T
  0.4246018066260149  0.4282740157670020  0.6893023167403030   F   F   F
  0.0754943370225983  0.9293655332452143  0.1887907590590754   T   T   T
  0.5757744566225712  0.9291866393839753  0.3101412978999318   T   T   T
  0.9246939690023410  0.4296218974130142  0.8117475022052858   F   F   F
  0.5759175979595832  0.5709563923659652  0.3106925734849483   T   T   T
  0.9246965695662936  0.0704488822439657  0.8114595184461137   F   F   F
  0.3225655717664537  0.0327170220162785  0.8428405058269846   F   F   F
  0.1781708104038429  0.5319722171011169  0.3431096801819608   T   T   T
  0.3226159376543194  0.4673694631181959  0.8428779271419700   F   F   F
  0.1779372545628188  0.9680142556761845  0.3430663393636178   T   T   T
  0.6780737418888062  0.9682487553468053  0.1565697479685057   T   T   T
  0.8222258524904282  0.4679434521534314  0.6571579046460435   T   T   T
  0.6781779875642648  0.5319399984940200  0.1567915085779456   T   T   T
  0.8222403554758557  0.0319261437962979  0.6570591870489650   F   F   F
  0.2778120144108129  0.0517181563193816  0.0608405448800369   F   F   F
  0.2225629053300327  0.5512077929868646  0.5612484227691843   T   T   T
  0.2779348223646991  0.4483932031399931  0.0609807699601532   F   F   F
  0.2215226743442645  0.9486365563369815  0.5613059211528117   T   T   T
  0.7227264352825971  0.9491046230050458  0.9378906551440772   T   T   T
  0.7777794674828478  0.4489687155720286  0.4385655171524392   T   T   T
  0.7230178127520425  0.5512943379472088  0.9383933623264388   T   T   T
  0.7777183482015815  0.0507342507922885  0.4387638417848905   F   F   F
  0.1222393759781326  0.0533902725190458  0.0485526587294061   F   F   F
  0.3778894815263698  0.5524817711794034  0.5487923746690315   T   T   T
  0.1223960263434307  0.4466426922669129  0.0487597094071575   F   F   F
  0.3767539340702619  0.9454337100734145  0.5470473093004439   T   T   T
  0.8784326551896701  0.9463689203589070  0.9507758361169218   T   T   T
  0.6222335642017001  0.4469568016202103  0.4508386223286251   F   F   F
  0.8786393203554465  0.5540005143999059  0.9514166605985539   T   T   T
  0.6221587523963237  0.0530535412373752  0.4506429248792188   F   F   F
  0.0729671108603824  0.0396912463477435  0.8237068127887994   F   F   F
  0.4273215208287935  0.5420127856984225  0.3241358761990503   T   T   T
  0.0729208454432282  0.4602509493204678  0.8240059498265282   F   F   F
  0.4269357843910082  0.9576579755876384  0.3228320777772345   T   T   T
  0.9272670590218969  0.9602782879488059  0.1758097005628029   T   T   T
  0.5719670589461359  0.4606361624989930  0.6754554909259340   F   F   F
  0.9272253505229378  0.5397692972001320  0.1763396658817647   T   T   T
  0.5718628916329322  0.0392758302909542  0.6752073696116838   F   F   F
  0.2017212713331631  0.0713501983014879  0.7128878005408055   F   F   F
  0.2983751247002177  0.5716502406789167  0.2129115637548402   T   T   T
  0.2016709283637468  0.4287605690359584  0.7130139672927811   F   F   F
  0.2979190680808453  0.9283686798999662  0.2124173053122884   T   T   T
  0.7987620570520538  0.9281941484927819  0.2862547060045080   T   T   T
  0.7011703017895599  0.4287504247122271  0.7860858937011699   F   F   F
  0.7988614180918969  0.5717557224959714  0.2865742840771737   T   T   T
  0.7009850225939829  0.0712797128378924  0.7858479972387897   F   F   F
  0.4218611981718376  0.8280177145462693  0.6874540523054919   T   T   T
  0.0770656163703691  0.3280314515831080  0.1862747382670094   F   F   F
  0.4224516488700160  0.6709647895596879  0.6888468803879170   T   T   T
  0.0769378311087792  0.1720819754882257  0.1861015670626713   F   F   F
  0.5763438147687268  0.1717477451428948  0.3139612482160743   F   F   F
  0.9236927145121121  0.6720748112343626  0.8116409695375693   T   T   T
  0.5763973844300807  0.3282553687281862  0.3140224098229325   F   F   F
  0.9232895841984845  0.8280193129457574  0.8115872442834148   T   T   T
  0.3171803757432351  0.8746701792025363  0.8354515302573005   T   T   T
  0.1833216226849643  0.3739288455903633  0.3341007214063438   F   F   F
  0.3172686657431329  0.6253337215631923  0.8359732435135785   T   T   T
  0.1832607671301218  0.1262213784445763  0.3340308846623401   F   F   F
  0.6834050478642197  0.1259563209637307  0.1659647814914820   F   F   F
  0.8164161217485114  0.6255532816116213  0.6652959332957565   T   T   T
  0.6833893107568656  0.3740960335754764  0.1660750614288062   F   F   F
  0.8160813138234382  0.8744116574310734  0.6652259496153655   T   T   T
  0.2690486697346220  0.8292026131873141  0.0377859059879346   T   T   T
  0.2268518225736855  0.3276136563291416  0.5388775901789629   F   F   F
  0.2692147791265408  0.6706835669847985  0.0383443893076580   T   T   T
  0.2268270823992680  0.1725089355700504  0.5387848684476708   F   F   F
  0.7266959865970932  0.1723337344925042  0.9605230878249245   F   F   F
  0.7729309104810355  0.6724073309609909  0.4607934879096949   T   T   T
  0.7267679328671477  0.3275985978444993  0.9608270841958984   F   F   F
  0.7729957407222300  0.8276673517650753  0.4605203201962437   T   T   T
  0.1152255875017610  0.8291830292813814  0.0234674170654047   T   T   T
  0.3826731639736707  0.3279397401870554  0.5246675852218132   F   F   F
  0.1152598723680972  0.6706987760370787  0.0237236401762079   T   T   T
  0.3826338428604146  0.1719663069195789  0.5247080181244499   F   F   F
  0.8826560770338574  0.1720494779265351  0.9752879226522282   F   F   F
  0.6173436361507580  0.6719584281801766  0.4757040760289821   T   T   T
  0.8827136557949373  0.3279542124364525  0.9753319847900244   F   F   F
  0.6173246714212751  0.8284186184854533  0.4752936576964777   T   T   T
  0.0678431384330839  0.8808818635902759  0.8162155982380540   T   T   T
  0.4309355732835343  0.3812039220709877  0.3170440280544540   F   F   F
  0.0682774117555326  0.6190700089266179  0.8158898648423791   T   T   T
  0.4309217753795593  0.1188577637743435  0.3170808963705625   F   F   F
  0.9309542749568820  0.1188800768752216  0.1834998830885439   F   F   F
  0.5690700229350866  0.6194218501861524  0.6834691635093428   T   T   T
  0.9309877149377357  0.3810294361667985  0.1835043223048913   F   F   F
  0.5685239913983466  0.8806738140025504  0.6828518228664354   T   T   T
  0.1948269224752908  0.8277740339931376  0.7036195472363752   T   T   T
  0.3056731817210903  0.3277351514661220  0.2032979629560714   F   F   F
  0.1955797801725876  0.6721735908142478  0.7032997094919460   T   T   T
  0.3056575770040908  0.1723045377981052  0.2033171613012996   F   F   F
  0.8051922359530295  0.1721009926957677  0.2976405172569159   F   F   F
  0.6951536753619657  0.6722521067218905  0.7972983544055615   T   T   T
  0.8052567153295485  0.3278086308274055  0.2975985090521434   F   F   F
  0.6945624885752169  0.8280985878949100  0.7969424172144814   T   T   T
  0.3932325722041410  0.7499987415622871  0.2744477341860419   T   T   T
  0.4370925733168005  0.7496554190391838  0.4634389822442742   T   T   T
  0.4740481226873703  0.7496228434744805  0.3363175361587133   T   T   T
  0.4188855932613714  0.7499844728727261  0.1512187350753020   T   T   T
  0.4562701285020861  0.7498177523131431  0.0905054906798714   T   T   T
  0.5251804190607980  0.7495085186451617  0.3092134267978656   T   T   T
 
  0.00000000E+00  0.00000000E+00  0.00000000E+00
  0.00000000E+00  0.00000000E+00  0.00000000E+00
  0.00000000E+00  0.00000000E+00  0.00000000E+00
  0.00000000E+00  0.00000000E+00  0.00000000E+00
  0.00000000E+00  0.00000000E+00  0.00000000E+00
  0.00000000E+00  0.00000000E+00  0.00000000E+00
  0.00000000E+00  0.00000000E+00  0.00000000E+00
  0.00000000E+00  0.00000000E+00  0.00000000E+00
  0.00000000E+00  0.00000000E+00  0.00000000E+00
  0.00000000E+00  0.00000000E+00  0.00000000E+00
  0.00000000E+00  0.00000000E+00  0.00000000E+00
  0.00000000E+00  0.00000000E+00  0.00000000E+00
  0.00000000E+00  0.00000000E+00  0.00000000E+00
  0.00000000E+00  0.00000000E+00  0.00000000E+00
  0.00000000E+00  0.00000000E+00  0.00000000E+00
  0.00000000E+00  0.00000000E+00  0.00000000E+00
  0.00000000E+00  0.00000000E+00  0.00000000E+00
  0.00000000E+00  0.00000000E+00  0.00000000E+00
  0.00000000E+00  0.00000000E+00  0.00000000E+00
  0.00000000E+00  0.00000000E+00  0.00000000E+00
  0.00000000E+00  0.00000000E+00  0.00000000E+00
  0.00000000E+00  0.00000000E+00  0.00000000E+00
  0.00000000E+00  0.00000000E+00  0.00000000E+00
  0.00000000E+00  0.00000000E+00  0.00000000E+00
  0.00000000E+00  0.00000000E+00  0.00000000E+00
  0.00000000E+00  0.00000000E+00  0.00000000E+00
  0.00000000E+00  0.00000000E+00  0.00000000E+00
  0.00000000E+00  0.00000000E+00  0.00000000E+00
  0.00000000E+00  0.00000000E+00  0.00000000E+00
  0.00000000E+00  0.00000000E+00  0.00000000E+00
  0.00000000E+00  0.00000000E+00  0.00000000E+00
  0.00000000E+00  0.00000000E+00  0.00000000E+00
  0.00000000E+00  0.00000000E+00  0.00000000E+00
  0.00000000E+00  0.00000000E+00  0.00000000E+00
  0.00000000E+00  0.00000000E+00  0.00000000E+00
  0.00000000E+00  0.00000000E+00  0.00000000E+00
  0.00000000E+00  0.00000000E+00  0.00000000E+00
  0.00000000E+00  0.00000000E+00  0.00000000E+00
  0.00000000E+00  0.00000000E+00  0.00000000E+00
  0.00000000E+00  0.00000000E+00  0.00000000E+00
  0.00000000E+00  0.00000000E+00  0.00000000E+00
  0.00000000E+00  0.00000000E+00  0.00000000E+00
  0.00000000E+00  0.00000000E+00  0.00000000E+00
  0.00000000E+00  0.00000000E+00  0.00000000E+00
  0.00000000E+00  0.00000000E+00  0.00000000E+00
  0.00000000E+00  0.00000000E+00  0.00000000E+00
  0.00000000E+00  0.00000000E+00  0.00000000E+00
  0.00000000E+00  0.00000000E+00  0.00000000E+00
  0.00000000E+00  0.00000000E+00  0.00000000E+00
  0.00000000E+00  0.00000000E+00  0.00000000E+00
  0.00000000E+00  0.00000000E+00  0.00000000E+00
  0.00000000E+00  0.00000000E+00  0.00000000E+00
  0.00000000E+00  0.00000000E+00  0.00000000E+00
  0.00000000E+00  0.00000000E+00  0.00000000E+00
  0.00000000E+00  0.00000000E+00  0.00000000E+00
  0.00000000E+00  0.00000000E+00  0.00000000E+00
  0.00000000E+00  0.00000000E+00  0.00000000E+00
  0.00000000E+00  0.00000000E+00  0.00000000E+00
  0.00000000E+00  0.00000000E+00  0.00000000E+00
  0.00000000E+00  0.00000000E+00  0.00000000E+00
  0.00000000E+00  0.00000000E+00  0.00000000E+00
  0.00000000E+00  0.00000000E+00  0.00000000E+00
  0.00000000E+00  0.00000000E+00  0.00000000E+00
  0.00000000E+00  0.00000000E+00  0.00000000E+00
  0.00000000E+00  0.00000000E+00  0.00000000E+00
  0.00000000E+00  0.00000000E+00  0.00000000E+00
  0.00000000E+00  0.00000000E+00  0.00000000E+00
  0.00000000E+00  0.00000000E+00  0.00000000E+00
  0.00000000E+00  0.00000000E+00  0.00000000E+00
  0.00000000E+00  0.00000000E+00  0.00000000E+00
  0.00000000E+00  0.00000000E+00  0.00000000E+00
  0.00000000E+00  0.00000000E+00  0.00000000E+00
  0.00000000E+00  0.00000000E+00  0.00000000E+00
  0.00000000E+00  0.00000000E+00  0.00000000E+00
  0.00000000E+00  0.00000000E+00  0.00000000E+00
  0.00000000E+00  0.00000000E+00  0.00000000E+00
  0.00000000E+00  0.00000000E+00  0.00000000E+00
  0.00000000E+00  0.00000000E+00  0.00000000E+00
  0.00000000E+00  0.00000000E+00  0.00000000E+00
  0.00000000E+00  0.00000000E+00  0.00000000E+00
  0.00000000E+00  0.00000000E+00  0.00000000E+00
  0.00000000E+00  0.00000000E+00  0.00000000E+00
  0.00000000E+00  0.00000000E+00  0.00000000E+00
  0.00000000E+00  0.00000000E+00  0.00000000E+00
  0.00000000E+00  0.00000000E+00  0.00000000E+00
  0.00000000E+00  0.00000000E+00  0.00000000E+00
  0.00000000E+00  0.00000000E+00  0.00000000E+00
  0.00000000E+00  0.00000000E+00  0.00000000E+00
  0.00000000E+00  0.00000000E+00  0.00000000E+00
  0.00000000E+00  0.00000000E+00  0.00000000E+00
  0.00000000E+00  0.00000000E+00  0.00000000E+00
  0.00000000E+00  0.00000000E+00  0.00000000E+00
  0.00000000E+00  0.00000000E+00  0.00000000E+00
  0.00000000E+00  0.00000000E+00  0.00000000E+00
  0.00000000E+00  0.00000000E+00  0.00000000E+00
  0.00000000E+00  0.00000000E+00  0.00000000E+00
  0.00000000E+00  0.00000000E+00  0.00000000E+00
  0.00000000E+00  0.00000000E+00  0.00000000E+00
  0.00000000E+00  0.00000000E+00  0.00000000E+00
  0.00000000E+00  0.00000000E+00  0.00000000E+00
  0.00000000E+00  0.00000000E+00  0.00000000E+00
  0.00000000E+00  0.00000000E+00  0.00000000E+00
  0.00000000E+00  0.00000000E+00  0.00000000E+00
  0.00000000E+00  0.00000000E+00  0.00000000E+00
  0.00000000E+00  0.00000000E+00  0.00000000E+00
  0.00000000E+00  0.00000000E+00  0.00000000E+00
  0.00000000E+00  0.00000000E+00  0.00000000E+00
  0.00000000E+00  0.00000000E+00  0.00000000E+00
  0.00000000E+00  0.00000000E+00  0.00000000E+00
  0.00000000E+00  0.00000000E+00  0.00000000E+00
  0.00000000E+00  0.00000000E+00  0.00000000E+00
  0.00000000E+00  0.00000000E+00  0.00000000E+00
  0.00000000E+00  0.00000000E+00  0.00000000E+00
  0.00000000E+00  0.00000000E+00  0.00000000E+00
  0.00000000E+00  0.00000000E+00  0.00000000E+00
  0.00000000E+00  0.00000000E+00  0.00000000E+00
  0.00000000E+00  0.00000000E+00  0.00000000E+00
  0.00000000E+00  0.00000000E+00  0.00000000E+00
  0.00000000E+00  0.00000000E+00  0.00000000E+00
  0.00000000E+00  0.00000000E+00  0.00000000E+00
  0.00000000E+00  0.00000000E+00  0.00000000E+00
  0.00000000E+00  0.00000000E+00  0.00000000E+00
  0.00000000E+00  0.00000000E+00  0.00000000E+00
  0.00000000E+00  0.00000000E+00  0.00000000E+00
  0.00000000E+00  0.00000000E+00  0.00000000E+00
  0.00000000E+00  0.00000000E+00  0.00000000E+00
  0.00000000E+00  0.00000000E+00  0.00000000E+00
  0.00000000E+00  0.00000000E+00  0.00000000E+00
  0.00000000E+00  0.00000000E+00  0.00000000E+00
  0.00000000E+00  0.00000000E+00  0.00000000E+00
  0.00000000E+00  0.00000000E+00  0.00000000E+00
  0.00000000E+00  0.00000000E+00  0.00000000E+00
  0.00000000E+00  0.00000000E+00  0.00000000E+00
  0.00000000E+00  0.00000000E+00  0.00000000E+00
  0.00000000E+00  0.00000000E+00  0.00000000E+00
  0.00000000E+00  0.00000000E+00  0.00000000E+00
  0.00000000E+00  0.00000000E+00  0.00000000E+00
  0.00000000E+00  0.00000000E+00  0.00000000E+00
  0.00000000E+00  0.00000000E+00  0.00000000E+00
  0.00000000E+00  0.00000000E+00  0.00000000E+00
  0.00000000E+00  0.00000000E+00  0.00000000E+00
  0.00000000E+00  0.00000000E+00  0.00000000E+00
  0.00000000E+00  0.00000000E+00  0.00000000E+00
  0.00000000E+00  0.00000000E+00  0.00000000E+00
  0.00000000E+00  0.00000000E+00  0.00000000E+00
  0.00000000E+00  0.00000000E+00  0.00000000E+00
  0.00000000E+00  0.00000000E+00  0.00000000E+00
  0.00000000E+00  0.00000000E+00  0.00000000E+00
  0.00000000E+00  0.00000000E+00  0.00000000E+00
  0.00000000E+00  0.00000000E+00  0.00000000E+00
  0.00000000E+00  0.00000000E+00  0.00000000E+00
  0.00000000E+00  0.00000000E+00  0.00000000E+00
  0.00000000E+00  0.00000000E+00  0.00000000E+00
  0.00000000E+00  0.00000000E+00  0.00000000E+00
  0.00000000E+00  0.00000000E+00  0.00000000E+00
  0.00000000E+00  0.00000000E+00  0.00000000E+00
  0.00000000E+00  0.00000000E+00  0.00000000E+00
  0.00000000E+00  0.00000000E+00  0.00000000E+00
  0.00000000E+00  0.00000000E+00  0.00000000E+00
  0.00000000E+00  0.00000000E+00  0.00000000E+00
  0.00000000E+00  0.00000000E+00  0.00000000E+00
  0.00000000E+00  0.00000000E+00  0.00000000E+00
  0.00000000E+00  0.00000000E+00  0.00000000E+00
  0.00000000E+00  0.00000000E+00  0.00000000E+00
  0.00000000E+00  0.00000000E+00  0.00000000E+00
  0.00000000E+00  0.00000000E+00  0.00000000E+00
  0.00000000E+00  0.00000000E+00  0.00000000E+00