O  Si Ru C  H                           
   1.00000000000000     
    20.3096463179830877    0.0000000000000000    0.0000000000000000
     0.0000000000000000   19.8625212307842212    0.0000000000000000
     0.0000000000000000    0.0000000000000000   13.3711533343531652
   O    Si   Ru   C    H 
   192    96     2     2     4
Selective dynamics
Direct
  0.5029151419623901  0.0735660596726220  0.7069316305773725   F   F   F
  0.9975465120921569  0.5722056013321435  0.2087406600889281   F   F   F
  0.5029625376940245  0.4265088223227380  0.7071140439527213   F   F   F
  0.9975287446032028  0.9276702776559571  0.2087046208194895   T   T   T
  0.4974977104802186  0.9278285197568588  0.2900765122763527   T   T   T
  0.0032184386695491  0.4269330484855089  0.7921409749159594   F   F   F
  0.4977203592960961  0.5720242044357065  0.2903984015411680   F   F   F
  0.0031941412613889  0.0729668753257329  0.7917158063303020   F   F   F
  0.3878579723645430  0.0669556667519231  0.7965548156122182   F   F   F
  0.1133759987999525  0.5681642766849038  0.2964373645987877   F   F   F
  0.3878584358486918  0.4330437684886519  0.7965742164748164   F   F   F
  0.1132943496537783  0.9319100719139759  0.2964860541036539   T   T   T
  0.6127574126597476  0.9321075861097536  0.2022210044220794   T   T   T
  0.8876973671888919  0.4327342034956771  0.7036508835393036   F   F   F
  0.6135821534334056  0.5682784344751042  0.2033449439821382   F   F   F
  0.8876117469000917  0.0673661435016157  0.7035018781795443   F   F   F
  0.4009161058478412  0.1389419031021148  0.6318180153029829   F   F   F
  0.0975200655231875  0.6394030576183641  0.1314417708153185   T   T   T
  0.4010424696537882  0.3610528181545121  0.6318133081225312   F   F   F
  0.0978115169196262  0.8605745669032020  0.1316217601846675   T   T   T
  0.5980154105710925  0.8606917858309144  0.3670700380414185   T   T   T
  0.9019278058779037  0.3610410398314983  0.8685731531220142   F   F   F
  0.5973505433892262  0.6393705205472371  0.3683709709117229   T   T   T
  0.9020589687179950  0.1389418631131747  0.8685141393728202   F   F   F
  0.4059805669348791  0.0047442563955897  0.6216751015979938   F   F   F
  0.0951764573732916  0.5048736608876467  0.1227496371721131   F   F   F
  0.4060063268505516  0.4952757309538711  0.6217644002593659   F   F   F
  0.0950713427781606  0.9951021733786417  0.1225410499838442   T   T   T
  0.5950599838087143  0.9954906845026399  0.3759024980107862   T   T   T
  0.9063174878259801  0.4953848205285425  0.8779651251188270   F   F   F
  0.5950752590078494  0.5043549968709016  0.3761727772273389   F   F   F
  0.9063218528932850  0.0045785558899212  0.8776992153014049   F   F   F
  0.3240114434950669  0.0382407076679172  0.9638230470655600   F   F   F
  0.1763485455368254  0.5378781522500660  0.4641542393044347   F   F   F
  0.3240639192643968  0.4618354887910741  0.9638665486159397   F   F   F
  0.1761122270337117  0.9618661229521431  0.4642645751280637   T   T   T
  0.6773351994506869  0.9616366707899907  0.0360999852191936   T   T   T
  0.8239264782183469  0.4615726959520288  0.5363529546552854   F   F   F
  0.6766273407468262  0.5380862158563389  0.0360413412402991   F   F   F
  0.8238113343158346  0.0383815205381524  0.5362542402135873   F   F   F
  0.3220445973062145  0.9532744029751844  0.8074634077635722   T   T   T
  0.1776758631529702  0.4534601678782408  0.3068976961336460   F   F   F
  0.3217291042216033  0.5466230856040681  0.8071625387420625   F   F   F
  0.1777392319065001  0.0465284403162727  0.3069405612850815   F   F   F
  0.6782953929680886  0.0464276494116262  0.1929820249193881   F   F   F
  0.8214903320832505  0.5463853187552132  0.6930224919608605   F   F   F
  0.6783411531563246  0.4536225664016982  0.1930928964972622   F   F   F
  0.8217613949329964  0.9534389490080918  0.6923654071700119   T   T   T
  0.2563457342386215  0.0684226129951071  0.8017762481607349   F   F   F
  0.2448952522016867  0.5671912581414134  0.3029801725596926   F   F   F
  0.2563604704749665  0.4316428390570621  0.8018556833268136   F   F   F
  0.2447889332624836  0.9324973284089407  0.3034289113540524   T   T   T
  0.7440454933846321  0.9313850715635373  0.1993045135442863   T   T   T
  0.7562410131176875  0.4314383528184749  0.6983979119208144   F   F   F
  0.7450790913829763  0.5677876932779427  0.1974180494790900   F   F   F
  0.7561874466482195  0.0686029683221889  0.6982838657223311   F   F   F
  0.2923457530791964  0.1261305060343005  0.1042687178754136   F   F   F
  0.2085719922432384  0.6261169041806620  0.6042017128458880   T   T   T
  0.2924222850649301  0.3739550916486252  0.1043750301760937   F   F   F
  0.2087712720009030  0.8739422222803276  0.6043135439216633   T   T   T
  0.7088808922555000  0.8738513665120031  0.8949788077827565   T   T   T
  0.7920626114484861  0.3741440791997874  0.3955590558159940   F   F   F
  0.7087883170545921  0.6260970521521809  0.8953807962929503   T   T   T
  0.7918328172678528  0.1258395964698522  0.3955348022627305   F   F   F
  0.2009180106485928  0.0428348962614322  0.0293984412057924   F   F   F
  0.2996968197579477  0.5426935160259490  0.5294112209858000   F   F   F
  0.2010372834083469  0.4573071122565651  0.0296181964629270   F   F   F
  0.2996254281187515  0.9574296990829820  0.5289287016390707   T   T   T
  0.8000377168149591  0.9573840765128100  0.9696235477029302   T   T   T
  0.7007908648720971  0.4573025797676209  0.4705712418615562   F   F   F
  0.7997060817570443  0.5420944581861136  0.9703302267615257   F   F   F
  0.7006462591275380  0.0424959606184885  0.4703037048025678   F   F   F
  0.2957047068851673  0.9962778562582583  0.1464690544964849   T   T   T
  0.2042062705839172  0.4967531181442908  0.6471179485467573   F   F   F
  0.2967512456497943  0.5034965594674716  0.1468170404423290   F   F   F
  0.2042827147657746  0.0033044922153636  0.6469642495983621   F   F   F
  0.7035695737600207  0.0031082455789999  0.8524917251822970   F   F   F
  0.7966009577419371  0.5038039927924629  0.3537093559489008   F   F   F
  0.7037483821235924  0.4970039567455018  0.8526551329040757   F   F   F
  0.7966378242710920  0.9956762739609706  0.3540954325378857   T   T   T
  0.1093131791865716  0.1272507473097590  0.0964945470806668   F   F   F
  0.3896392841485777  0.6265598056640662  0.6014181930839788   T   T   T
  0.1096159065423521  0.3727429065902896  0.0968433397711834   F   F   F
  0.3898855736178667  0.8739521431749692  0.6020672200002705   T   T   T
  0.8915857455561736  0.8725871420159668  0.9029497457719219   T   T   T
  0.6094185792695015  0.3723840888363128  0.4038542259655458   F   F   F
  0.8906097586381697  0.6273395683166588  0.9030057366091849   T   T   T
  0.6094041022901209  0.1276315479534134  0.4037605891893747   F   F   F
  0.0831048349475765  0.0475109685477975  0.9435687042287597   F   F   F
  0.4176871806418063  0.5499813561623768  0.4438436836473443   F   F   F
  0.0831856777148303  0.4523523729842580  0.9438997465468049   F   F   F
  0.4176326863705819  0.9502384483003250  0.4437937925711866   T   T   T
  0.9179800428592597  0.9516152149681850  0.0560350014019986   T   T   T
  0.5827906879946028  0.4530925389524398  0.5556375829759830   F   F   F
  0.9173413997613409  0.5488456328287370  0.0565855780411937   F   F   F
  0.5826187119468287  0.0467912904197689  0.5553540539617146   F   F   F
  0.1296231040844802  0.0799627804154994  0.7634423203244225   F   F   F
  0.3713805715389924  0.5807279038530382  0.2623249302738841   F   F   F
  0.1296318253701898  0.4200410798835748  0.7636759413020187   F   F   F
  0.3711204488547846  0.9204567704001689  0.2610957994300353   T   T   T
  0.8710158970277669  0.9197437575223985  0.2356467657337344   T   T   T
  0.6292993944101113  0.4207916246772925  0.7356744224965155   F   F   F
  0.8713626048482652  0.5804791718471378  0.2374900436238292   F   F   F
  0.6292492851724560  0.0793042870953116  0.7352598947508895   F   F   F
  0.0750117204062354  0.9607798088807809  0.7919910432716621   T   T   T
  0.4241131313273669  0.4613752091790673  0.2948144036777691   F   F   F
  0.0748028995871124  0.5391836990524368  0.7923195950701611   F   F   F
  0.4241964469789892  0.0386462131336458  0.2945780170194396   F   F   F
  0.9248077689555814  0.0391348004589247  0.2067119060627078   F   F   F
  0.5730250382433582  0.5395395133105296  0.7075292341394857   F   F   F
  0.9246677977408950  0.4608033835361240  0.2067758124953869   F   F   F
  0.5726161280543980  0.9602905468149876  0.7066459600669116   T   T   T
  0.2161824121332003  0.1373904738735874  0.6463271447778780   F   F   F
  0.2820872870398316  0.6374544353611069  0.1482702153283878   T   T   T
  0.2161517510064428  0.3626744318723070  0.6464343906898762   F   F   F
  0.2816743964014071  0.8624333654846420  0.1479457417448664   T   T   T
  0.7866287345444400  0.8608472425825481  0.3528673677856340   T   T   T
  0.7150253360603145  0.3628167424777686  0.8534947758407938   F   F   F
  0.7849128791061671  0.6382656095629324  0.3529057120523825   T   T   T
  0.7148261493384283  0.1372886464544649  0.8532633160024901   F   F   F
  0.4976191066761269  0.8507389948131701  0.7155250380433144   T   T   T
  0.0036584267006603  0.3545747407892605  0.2132407109572441   F   F   F
  0.4967076542155764  0.6484042381389081  0.7166556890541117   T   T   T
  0.0035385368081577  0.1455500153788094  0.2131493366729131   F   F   F
  0.5037287630216625  0.1445781717231256  0.2864470147087275   F   F   F
  0.9968862747232267  0.6459913685890021  0.7866252167912793   T   T   T
  0.5037707510527198  0.3555116669135501  0.2864961434610791   F   F   F
  0.9977377413364001  0.8533095744521549  0.7864140486129277   T   T   T
  0.3805086722987811  0.8336902884194830  0.7921459635181887   T   T   T
  0.1210268688035399  0.3338110613837486  0.2872208120334179   F   F   F
  0.3791421897427513  0.6668288401880607  0.7912767561477279   T   T   T
  0.1209586482013023  0.1660553506375635  0.2869694551628612   F   F   F
  0.6210864063625010  0.1658884040414250  0.2130439895052163   F   F   F
  0.8800311969509305  0.6654840099756449  0.7123246231232363   T   T   T
  0.6211110157533284  0.3341538800550268  0.2131485949028544   F   F   F
  0.8809340493977821  0.8346369029964529  0.7121151475335770   T   T   T
  0.4214665693251655  0.7500555058677288  0.6479640331166517   T   T   T
  0.0746191832608716  0.2500230315661014  0.1491574075772419   F   F   F
  0.5737535633323603  0.2500033269389590  0.3499372146450668   F   F   F
  0.9253358237097830  0.7498903973775933  0.8506832196155014   T   T   T
  0.3159892898474508  0.8662018193900012  0.9566612874161327   T   T   T
  0.1831382099758727  0.3656193254218110  0.4546788161282862   F   F   F
  0.3157226631093904  0.6333979279759367  0.9566309049193454   T   T   T
  0.1830710617180671  0.1345150281137819  0.4545914900688217   F   F   F
  0.6830517762348904  0.1344874634880142  0.0452736917138168   F   F   F
  0.8189629342547234  0.6348494386178305  0.5447260997169677   T   T   T
  0.6830854472072687  0.3655253709567745  0.0454288807432022   F   F   F
  0.8193568827756793  0.8642586963255706  0.5447465566975823   T   T   T
  0.2504933144345561  0.8425772505235468  0.7882698048588790   T   T   T
  0.2513284304882717  0.3439160443049900  0.2888596437238746   F   F   F
  0.2490925673753440  0.6566835307914504  0.7891248266597877   T   T   T
  0.2512496259875334  0.1561531436267387  0.2887659973841181   F   F   F
  0.7514064122389215  0.1563514770940770  0.2107774734307739   F   F   F
  0.7498246128278302  0.6568658578234878  0.7105335946940013   T   T   T
  0.7514333991542230  0.3437018738677295  0.2109204239965408   F   F   F
  0.7508197203551786  0.8424938115080831  0.7109157362817543   T   T   T
  0.2961177328354179  0.7498697859075530  0.0472368971623594   T   T   T
  0.2037513614112356  0.2500402232570522  0.5473130572547689   F   F   F
  0.7036288451255430  0.2500227799147439  0.9524367183681051   F   F   F
  0.7864222302229996  0.7495102653887964  0.4567461085259436   T   T   T
  0.1953898704650798  0.8310819209275494  0.0067188241298881   T   T   T
  0.3039760542072045  0.3321511197779401  0.5063204852821102   F   F   F
  0.1953514917408265  0.6686606726159185  0.0074378817630627   T   T   T
  0.3039535270350342  0.1678850199576374  0.5061614664230731   F   F   F
  0.8037674365760594  0.1675499430433049  0.9919476301601620   F   F   F
  0.6957258866010138  0.6552678124622875  0.4956974450055600   T   T   T
  0.8038193000716305  0.3323998958156906  0.9923103515000236   F   F   F
  0.6962386063437358  0.8442488218739820  0.4942877258196408   T   T   T
  0.0914604520894385  0.7500194110092845  0.0216820708776449   T   T   T
  0.4070684857934594  0.2499810289984339  0.5234879823940233   F   F   F
  0.9068306617426174  0.2499858845960929  0.9771434341541791   F   F   F
  0.6047875262348800  0.7500140002517294  0.4791287466321246   T   T   T
  0.0809224608632693  0.8701927992957872  0.9360099537912842   T   T   T
  0.4196731292247478  0.3690835510139365  0.4362494260570955   F   F   F
  0.0810164085662287  0.6301243415581858  0.9355423059544548   T   T   T
  0.4196318579545562  0.1308483549065897  0.4362280688829117   F   F   F
  0.9187871414795694  0.1307480475178480  0.0643944961597001   F   F   F
  0.5773783266051741  0.6320549913947685  0.5644356922014137   T   T   T
  0.9189813415853791  0.3691962182345989  0.0643979391319860   F   F   F
  0.5782324764533106  0.8684010439082102  0.5633451507376431   T   T   T
  0.1235294625718333  0.8405678740609881  0.7502422443328003   T   T   T
  0.3782191667140111  0.3406282260943811  0.2495822814269246   F   F   F
  0.1224110443696638  0.6595929865120401  0.7489422890628451   T   T   T
  0.3781398319688947  0.1593484212036174  0.2495850342034558   F   F   F
  0.8780772199561611  0.1597428608575626  0.2513021010905376   F   F   F
  0.6229302945304015  0.6589611631337716  0.7499177397521648   T   T   T
  0.8781527669198397  0.3400969411418018  0.2511874583142415   F   F   F
  0.6237600708481345  0.8412208530404308  0.7486971562674841   T   T   T
  0.2011310241931752  0.7499371418200291  0.6666054337681359   T   T   T
  0.2996637301077030  0.2500277610362360  0.1677077677577756   F   F   F
  0.7990848778479602  0.2499825440223233  0.3330224582314472   F   F   F
  0.7006425357213530  0.7499409815146915  0.8322540032465048   T   T   T
  0.4243120677247703  0.0706248793323780  0.6882720414480872   F   F   F
  0.0760515629478533  0.5707141827737630  0.1887833199971851   F   F   F
  0.4243642501694112  0.4293781953153299  0.6883255931551702   F   F   F
  0.0760682994624824  0.9292852683242164  0.1887508919138569   T   T   T
  0.5758492742488289  0.9294310019785458  0.3103466910594325   T   T   T
  0.9246233627582825  0.4294307430317730  0.8116017276557059   F   F   F
  0.5761242863364586  0.5706873103235637  0.3109170475815333   F   F   F
  0.9246201416023538  0.0705567486414296  0.8113905219130189   F   F   F
  0.3223819734165474  0.0318316953936488  0.8430151480515420   F   F   F
  0.1780452314772205  0.5317164602638726  0.3432883448099062   F   F   F
  0.3224146420772769  0.4682209026483264  0.8430421287326908   F   F   F
  0.1780424553026596  0.9682514415111020  0.3433099950026656   T   T   T
  0.6782817093381681  0.9680201850924907  0.1570191249248143   T   T   T
  0.8222945580976031  0.4680597921700667  0.6571628257407198   F   F   F
  0.6784011481407290  0.5319538700143198  0.1569513425766544   F   F   F
  0.8222309627981090  0.0319692201244450  0.6570775164942972   F   F   F
  0.2779123087333701  0.0511264612777964  0.0613109493893447   F   F   F
  0.2226568316635706  0.5510577151876532  0.5612541371714030   F   F   F
  0.2780423512307522  0.4489808195105951  0.0614569707557564   F   F   F
  0.2227299667914293  0.9490115884670001  0.5610969581400165   T   T   T
  0.7229891972161461  0.9488914770962296  0.9381183402836135   T   T   T
  0.7778141510926559  0.4491288428941544  0.4387963766751781   F   F   F
  0.7227333495790305  0.5509907875996660  0.9386600761461779   F   F   F
  0.7777079553616204  0.0507975122443085  0.4386758489674847   F   F   F
  0.1224574189986996  0.0532732866075847  0.0483851064646856   F   F   F
  0.3779769887972222  0.5535711134250292  0.5484128788570217   F   F   F
  0.1226107360804676  0.4467220309073738  0.0486672413644982   F   F   F
  0.3779357743123352  0.9465888037105415  0.5481414945632861   T   T   T
  0.8785089534513880  0.9464560398986059  0.9513370805937513   T   T   T
  0.6224157232441314  0.4466922016762993  0.4511188640456680   F   F   F
  0.8780396312731398  0.5534298767382921  0.9515768464672476   F   F   F
  0.6222660347702487  0.0532503084769687  0.4508426119537319   F   F   F
  0.0728412340832634  0.0397062233897643  0.8238019586723624   F   F   F
  0.4277437962122690  0.5407555480855848  0.3241855554615896   F   F   F
  0.0728651157205249  0.4602342044834629  0.8241694721060924   F   F   F
  0.4273896170947398  0.9591095265585006  0.3239188348487849   T   T   T
  0.9277270318934093  0.9601471838668203  0.1756980180476682   T   T   T
  0.5722872311394767  0.4606056157916711  0.6753226260991951   F   F   F
  0.9275541845522710  0.5399426299954300  0.1762338123948481   F   F   F
  0.5722002755176163  0.0394245703525797  0.6750904917086089   F   F   F
  0.2016626826565684  0.0714697559756701  0.7134550092025691   F   F   F
  0.2988993987442186  0.5712898499085739  0.2141871586954238   F   F   F
  0.2016336523030233  0.4285870286521600  0.7135974393340589   F   F   F
  0.2985541299989015  0.9284042025844409  0.2139382203686563   T   T   T
  0.7993380258208166  0.9277472708600383  0.2867927578414377   T   T   T
  0.7012003299792298  0.4288186369106910  0.7861858612953654   F   F   F
  0.7990674709343182  0.5717379632341064  0.2865965737987679   F   F   F
  0.7010838455696202  0.0712665571672204  0.7859514996808130   F   F   F
  0.4230078296316492  0.8288318408148518  0.6897720105695548   T   T   T
  0.0769156502417161  0.3279886870119242  0.1860147788485307   F   F   F
  0.4225272569894964  0.6713803654096815  0.6896496213028414   T   T   T
  0.0768112818279434  0.1720160537428654  0.1858265876985072   F   F   F
  0.5767129546629590  0.1718671486741741  0.3139569590465925   F   F   F
  0.9235043742694267  0.6719672122457852  0.8139408408864376   T   T   T
  0.5767212789286447  0.3281510196691713  0.3140415784961021   F   F   F
  0.9241963435960061  0.8278245364834717  0.8138385359802470   T   T   T
  0.3169921101423961  0.8741193543180359  0.8359897749157182   T   T   T
  0.1833074541364965  0.3740495101119237  0.3339202901998917   F   F   F
  0.3162082020846197  0.6257882508693436  0.8358521728498404   T   T   T
  0.1832639004326140  0.1259627486727979  0.3338573048679194   F   F   F
  0.6834029271010706  0.1259062829963540  0.1659798546337825   F   F   F
  0.8175476666009570  0.6258336903767410  0.6654264751965926   T   T   T
  0.6834285715484469  0.3741454557802228  0.1661310163765606   F   F   F
  0.8182132165952291  0.8738491031252085  0.6653050854933567   T   T   T
  0.2720674911836488  0.8273245771787239  0.0404844445019286   T   T   T
  0.2271237881017711  0.3276058948125495  0.5390136658916944   F   F   F
  0.2720907917076691  0.6724696173936753  0.0406287633663804   T   T   T
  0.2271202873219309  0.1724799435127480  0.5389173023724467   F   F   F
  0.7267472501634842  0.1723610876501098  0.9604303881170466   F   F   F
  0.7711937392431298  0.6699193132909219  0.4621228699858922   T   T   T
  0.7268216124557796  0.3276504608084423  0.9606404345553159   F   F   F
  0.7718167831845208  0.8292773632465367  0.4618006787778250   T   T   T
  0.1165378355783267  0.8277053480763701  0.0244243951889923   T   T   T
  0.3827581189327915  0.3278378273251619  0.5246491080329818   F   F   F
  0.1164401178549191  0.6723128277216606  0.0243834776131258   T   T   T
  0.3827275409154680  0.1721328363621524  0.5246189896410982   F   F   F
  0.8826748189633378  0.1720728385653771  0.9752648999179740   F   F   F
  0.6180322420479383  0.6699446507465772  0.4761768312065746   T   T   T
  0.8827059240094073  0.3279195982384806  0.9753863353167560   F   F   F
  0.6183872429876383  0.8300262937263535  0.4750473793576172   T   T   T
  0.0697922747970807  0.8811041299299813  0.8165968959053171   T   T   T
  0.4310362713513314  0.3815536136468793  0.3171561254436810   F   F   F
  0.0693322855054873  0.6189071746339307  0.8163125144076474   T   T   T
  0.4310160210270055  0.1184563301937942  0.3171106125946963   F   F   F
  0.9308107186515571  0.1189823214311971  0.1834600447849795   F   F   F
  0.5684388282478441  0.6194628492957753  0.6838414217645611   T   T   T
  0.9308747943928424  0.3809922836910218  0.1834914197417490   F   F   F
  0.5690015041814359  0.8804225171263148  0.6827068088632285   T   T   T
  0.1958102767731766  0.8277203515495686  0.7023986807604121   T   T   T
  0.3055343881691073  0.3279008594260304  0.2027792002935414   F   F   F
  0.1951201057537559  0.6722419138073058  0.7023600029437701   T   T   T
  0.3054784587058776  0.1721382358153463  0.2027155232773481   F   F   F
  0.8051754997750677  0.1721935395061607  0.2975943809345409   F   F   F
  0.6955902300251796  0.6720875752755326  0.7968778780786254   T   T   T
  0.8052597360911449  0.3277658206369907  0.2976066237846595   F   F   F
  0.6960438614590263  0.8277882730823976  0.7965189573556698   T   T   T
  0.3695449741040898  0.7450982903745614  0.3241616694062745   T   T   T
  0.4280365518241546  0.7533217143128792  0.4673165038545977   T   T   T
  0.4860280016547833  0.7522096804167075  0.1708035279029807   T   T   T
  0.4240017838131312  0.7491204677869076  0.2259247909013985   T   T   T
  0.4777130440535070  0.7545418040696542  0.0893864614956750   T   T   T
  0.5143929222998834  0.7970040444082991  0.1936262000270224   T   T   T
  0.5159056221071580  0.7071752289746449  0.1875160906200669   T   T   T
  0.4879001786736415  0.7708127855861101  0.3972891479356799   T   T   T
 
  0.00000000E+00  0.00000000E+00  0.00000000E+00
  0.00000000E+00  0.00000000E+00  0.00000000E+00
  0.00000000E+00  0.00000000E+00  0.00000000E+00
  0.00000000E+00  0.00000000E+00  0.00000000E+00
  0.00000000E+00  0.00000000E+00  0.00000000E+00
  0.00000000E+00  0.00000000E+00  0.00000000E+00
  0.00000000E+00  0.00000000E+00  0.00000000E+00
  0.00000000E+00  0.00000000E+00  0.00000000E+00
  0.00000000E+00  0.00000000E+00  0.00000000E+00
  0.00000000E+00  0.00000000E+00  0.00000000E+00
  0.00000000E+00  0.00000000E+00  0.00000000E+00
  0.00000000E+00  0.00000000E+00  0.00000000E+00
  0.00000000E+00  0.00000000E+00  0.00000000E+00
  0.00000000E+00  0.00000000E+00  0.00000000E+00
  0.00000000E+00  0.00000000E+00  0.00000000E+00
  0.00000000E+00  0.00000000E+00  0.00000000E+00
  0.00000000E+00  0.00000000E+00  0.00000000E+00
  0.00000000E+00  0.00000000E+00  0.00000000E+00
  0.00000000E+00  0.00000000E+00  0.00000000E+00
  0.00000000E+00  0.00000000E+00  0.00000000E+00
  0.00000000E+00  0.00000000E+00  0.00000000E+00
  0.00000000E+00  0.00000000E+00  0.00000000E+00
  0.00000000E+00  0.00000000E+00  0.00000000E+00
  0.00000000E+00  0.00000000E+00  0.00000000E+00
  0.00000000E+00  0.00000000E+00  0.00000000E+00
  0.00000000E+00  0.00000000E+00  0.00000000E+00
  0.00000000E+00  0.00000000E+00  0.00000000E+00
  0.00000000E+00  0.00000000E+00  0.00000000E+00
  0.00000000E+00  0.00000000E+00  0.00000000E+00
  0.00000000E+00  0.00000000E+00  0.00000000E+00
  0.00000000E+00  0.00000000E+00  0.00000000E+00
  0.00000000E+00  0.00000000E+00  0.00000000E+00
  0.00000000E+00  0.00000000E+00  0.00000000E+00
  0.00000000E+00  0.00000000E+00  0.00000000E+00
  0.00000000E+00  0.00000000E+00  0.00000000E+00
  0.00000000E+00  0.00000000E+00  0.00000000E+00
  0.00000000E+00  0.00000000E+00  0.00000000E+00
  0.00000000E+00  0.00000000E+00  0.00000000E+00
  0.00000000E+00  0.00000000E+00  0.00000000E+00
  0.00000000E+00  0.00000000E+00  0.00000000E+00
  0.00000000E+00  0.00000000E+00  0.00000000E+00
  0.00000000E+00  0.00000000E+00  0.00000000E+00
  0.00000000E+00  0.00000000E+00  0.00000000E+00
  0.00000000E+00  0.00000000E+00  0.00000000E+00
  0.00000000E+00  0.00000000E+00  0.00000000E+00
  0.00000000E+00  0.00000000E+00  0.00000000E+00
  0.00000000E+00  0.00000000E+00  0.00000000E+00
  0.00000000E+00  0.00000000E+00  0.00000000E+00
  0.00000000E+00  0.00000000E+00  0.00000000E+00
  0.00000000E+00  0.00000000E+00  0.00000000E+00
  0.00000000E+00  0.00000000E+00  0.00000000E+00
  0.00000000E+00  0.00000000E+00  0.00000000E+00
  0.00000000E+00  0.00000000E+00  0.00000000E+00
  0.00000000E+00  0.00000000E+00  0.00000000E+00
  0.00000000E+00  0.00000000E+00  0.00000000E+00
  0.00000000E+00  0.00000000E+00  0.00000000E+00
  0.00000000E+00  0.00000000E+00  0.00000000E+00
  0.00000000E+00  0.00000000E+00  0.00000000E+00
  0.00000000E+00  0.00000000E+00  0.00000000E+00
  0.00000000E+00  0.00000000E+00  0.00000000E+00
  0.00000000E+00  0.00000000E+00  0.00000000E+00
  0.00000000E+00  0.00000000E+00  0.00000000E+00
  0.00000000E+00  0.00000000E+00  0.00000000E+00
  0.00000000E+00  0.00000000E+00  0.00000000E+00
  0.00000000E+00  0.00000000E+00  0.00000000E+00
  0.00000000E+00  0.00000000E+00  0.00000000E+00
  0.00000000E+00  0.00000000E+00  0.00000000E+00
  0.00000000E+00  0.00000000E+00  0.00000000E+00
  0.00000000E+00  0.00000000E+00  0.00000000E+00
  0.00000000E+00  0.00000000E+00  0.00000000E+00
  0.00000000E+00  0.00000000E+00  0.00000000E+00
  0.00000000E+00  0.00000000E+00  0.00000000E+00
  0.00000000E+00  0.00000000E+00  0.00000000E+00
  0.00000000E+00  0.00000000E+00  0.00000000E+00
  0.00000000E+00  0.00000000E+00  0.00000000E+00
  0.00000000E+00  0.00000000E+00  0.00000000E+00
  0.00000000E+00  0.00000000E+00  0.00000000E+00
  0.00000000E+00  0.00000000E+00  0.00000000E+00
  0.00000000E+00  0.00000000E+00  0.00000000E+00
  0.00000000E+00  0.00000000E+00  0.00000000E+00
  0.00000000E+00  0.00000000E+00  0.00000000E+00
  0.00000000E+00  0.00000000E+00  0.00000000E+00
  0.00000000E+00  0.00000000E+00  0.00000000E+00
  0.00000000E+00  0.00000000E+00  0.00000000E+00
  0.00000000E+00  0.00000000E+00  0.00000000E+00
  0.00000000E+00  0.00000000E+00  0.00000000E+00
  0.00000000E+00  0.00000000E+00  0.00000000E+00
  0.00000000E+00  0.00000000E+00  0.00000000E+00
  0.00000000E+00  0.00000000E+00  0.00000000E+00
  0.00000000E+00  0.00000000E+00  0.00000000E+00
  0.00000000E+00  0.00000000E+00  0.00000000E+00
  0.00000000E+00  0.00000000E+00  0.00000000E+00
  0.00000000E+00  0.00000000E+00  0.00000000E+00
  0.00000000E+00  0.00000000E+00  0.00000000E+00
  0.00000000E+00  0.00000000E+00  0.00000000E+00
  0.00000000E+00  0.00000000E+00  0.00000000E+00
  0.00000000E+00  0.00000000E+00  0.00000000E+00
  0.00000000E+00  0.00000000E+00  0.00000000E+00
  0.00000000E+00  0.00000000E+00  0.00000000E+00
  0.00000000E+00  0.00000000E+00  0.00000000E+00
  0.00000000E+00  0.00000000E+00  0.00000000E+00
  0.00000000E+00  0.00000000E+00  0.00000000E+00
  0.00000000E+00  0.00000000E+00  0.00000000E+00
  0.00000000E+00  0.00000000E+00  0.00000000E+00
  0.00000000E+00  0.00000000E+00  0.00000000E+00
  0.00000000E+00  0.00000000E+00  0.00000000E+00
  0.00000000E+00  0.00000000E+00  0.00000000E+00
  0.00000000E+00  0.00000000E+00  0.00000000E+00
  0.00000000E+00  0.00000000E+00  0.00000000E+00
  0.00000000E+00  0.00000000E+00  0.00000000E+00
  0.00000000E+00  0.00000000E+00  0.00000000E+00
  0.00000000E+00  0.00000000E+00  0.00000000E+00
  0.00000000E+00  0.00000000E+00  0.00000000E+00
  0.00000000E+00  0.00000000E+00  0.00000000E+00
  0.00000000E+00  0.00000000E+00  0.00000000E+00
  0.00000000E+00  0.00000000E+00  0.00000000E+00
  0.00000000E+00  0.00000000E+00  0.00000000E+00
  0.00000000E+00  0.00000000E+00  0.00000000E+00
  0.00000000E+00  0.00000000E+00  0.00000000E+00
  0.00000000E+00  0.00000000E+00  0.00000000E+00
  0.00000000E+00  0.00000000E+00  0.00000000E+00
  0.00000000E+00  0.00000000E+00  0.00000000E+00
  0.00000000E+00  0.00000000E+00  0.00000000E+00
  0.00000000E+00  0.00000000E+00  0.00000000E+00
  0.00000000E+00  0.00000000E+00  0.00000000E+00
  0.00000000E+00  0.00000000E+00  0.00000000E+00
  0.00000000E+00  0.00000000E+00  0.00000000E+00
  0.00000000E+00  0.00000000E+00  0.00000000E+00
  0.00000000E+00  0.00000000E+00  0.00000000E+00
  0.00000000E+00  0.00000000E+00  0.00000000E+00
  0.00000000E+00  0.00000000E+00  0.00000000E+00
  0.00000000E+00  0.00000000E+00  0.00000000E+00
  0.00000000E+00  0.00000000E+00  0.00000000E+00
  0.00000000E+00  0.00000000E+00  0.00000000E+00
  0.00000000E+00  0.00000000E+00  0.00000000E+00
  0.00000000E+00  0.00000000E+00  0.00000000E+00
  0.00000000E+00  0.00000000E+00  0.00000000E+00
  0.00000000E+00  0.00000000E+00  0.00000000E+00
  0.00000000E+00  0.00000000E+00  0.00000000E+00
  0.00000000E+00  0.00000000E+00  0.00000000E+00
  0.00000000E+00  0.00000000E+00  0.00000000E+00
  0.00000000E+00  0.00000000E+00  0.00000000E+00
  0.00000000E+00  0.00000000E+00  0.00000000E+00
  0.00000000E+00  0.00000000E+00  0.00000000E+00
  0.00000000E+00  0.00000000E+00  0.00000000E+00
  0.00000000E+00  0.00000000E+00  0.00000000E+00
  0.00000000E+00  0.00000000E+00  0.00000000E+00
  0.00000000E+00  0.00000000E+00  0.00000000E+00
  0.00000000E+00  0.00000000E+00  0.00000000E+00
  0.00000000E+00  0.00000000E+00  0.00000000E+00
  0.00000000E+00  0.00000000E+00  0.00000000E+00
  0.00000000E+00  0.00000000E+00  0.00000000E+00
  0.00000000E+00  0.00000000E+00  0.00000000E+00
  0.00000000E+00  0.00000000E+00  0.00000000E+00
  0.00000000E+00  0.00000000E+00  0.00000000E+00
  0.00000000E+00  0.00000000E+00  0.00000000E+00
  0.00000000E+00  0.00000000E+00  0.00000000E+00
  0.00000000E+00  0.00000000E+00  0.00000000E+00
  0.00000000E+00  0.00000000E+00  0.00000000E+00
  0.00000000E+00  0.00000000E+00  0.00000000E+00
  0.00000000E+00  0.00000000E+00  0.00000000E+00
  0.00000000E+00  0.00000000E+00  0.00000000E+00
  0.00000000E+00  0.00000000E+00  0.00000000E+00
  0.00000000E+00  0.00000000E+00  0.00000000E+00