O  Si Ru C  H                           
   1.00000000000000     
    20.3096463179830877    0.0000000000000000    0.0000000000000000
     0.0000000000000000   19.8625212307842212    0.0000000000000000
     0.0000000000000000    0.0000000000000000   13.3711533343531652
   O    Si   Ru   C    H 
   192    96     3     2     4
Selective dynamics
Direct
  0.5029245865423917  0.0735866005671681  0.7057269468474061   F   F   F
  0.9970455061337589  0.5700780339064622  0.2100743034450616   F   F   F
  0.5029310940322205  0.4263641466018910  0.7056154838617559   F   F   F
  0.9970829511083537  0.9300297280081509  0.2102699593384116   F   F   F
  0.4978466759135927  0.9257935969075390  0.2931370272986200   F   F   F
  0.0035268244875652  0.4285887089854867  0.7894615896437500   F   F   F
  0.4970649730116961  0.5740854491343370  0.2925047334089257   F   F   F
  0.0035156998930290  0.0713936659300103  0.7894054086061644   F   F   F
  0.3889643219318089  0.0656971955719996  0.7984424659046496   F   F   F
  0.1126143516616764  0.5674275777684414  0.2979926773153494   F   F   F
  0.3889702166783167  0.4343312748942836  0.7984207323749644   F   F   F
  0.1130709008203965  0.9323932393490111  0.2977606918087190   F   F   F
  0.6114240036484446  0.9350841775212899  0.1989536734012347   F   F   F
  0.8875971012062180  0.4318160732716692  0.7019697673979763   F   F   F
  0.6116028365726507  0.5648368219396147  0.1990458292601289   F   F   F
  0.8876325842707402  0.0681592519529914  0.7019986667525160   F   F   F
  0.4001201304692259  0.1396720609578992  0.6349027092636135   F   F   F
  0.0965270676215724  0.6386443790393059  0.1331617165606076   F   F   F
  0.4000323091632083  0.3603246559626356  0.6349242891129308   F   F   F
  0.0961222533982209  0.8613322615953507  0.1332780907862485   F   F   F
  0.6028151816837308  0.8634241187573295  0.3651053381635307   F   F   F
  0.9036569380909327  0.3609899393929155  0.8673726081683171   F   F   F
  0.6021447813392342  0.6364013928551273  0.3652771839540208   F   F   F
  0.9036755583167491  0.1389812947841378  0.8673581104759833   F   F   F
  0.4051313584252441  0.0057391979670385  0.6215308621059421   F   F   F
  0.0958276538721066  0.5042535088777740  0.1236139248121901   F   F   F
  0.4050904648785121  0.4941195527031184  0.6215775857153787   F   F   F
  0.0958821410877704  0.9958200483619208  0.1236507245768976   F   F   F
  0.5942371892070284  0.9975824379925484  0.3735603193313395   F   F   F
  0.9056591147605886  0.4953552487451702  0.8755266168628424   F   F   F
  0.5939738933615359  0.5028074680980410  0.3731696977170813   F   F   F
  0.9056148767958163  0.0046171235178676  0.8755983936457170   F   F   F
  0.3235539271124495  0.0394498903069049  0.9647285290817464   F   F   F
  0.1755963539934697  0.5374074384535064  0.4653176704283268   F   F   F
  0.3235985361450417  0.4606258541584154  0.9647340202874801   F   F   F
  0.1759036805460141  0.9624004439111502  0.4650184721574746   F   F   F
  0.6780086408837320  0.9621709087140857  0.0348515936088489   F   F   F
  0.8237994528676325  0.4615699510442468  0.5351324490528313   F   F   F
  0.6780522192539920  0.5377438968337600  0.0350076657747849   F   F   F
  0.8238883824447143  0.0384196784690403  0.5351784083198936   F   F   F
  0.3179615284306649  0.9544047897618313  0.8084789414723161   F   F   F
  0.1785882888827928  0.4536492915975998  0.3065180498914870   F   F   F
  0.3181904986689403  0.5455068284843634  0.8087382041703037   F   F   F
  0.1787016350663109  0.0462438683932760  0.3065569202688678   F   F   F
  0.6820253090818724  0.0467234376931174  0.1922272345671701   F   F   F
  0.8214112124961730  0.5453679367608046  0.6933026550251995   F   F   F
  0.6820451877410818  0.4532271756335504  0.1923035422132386   F   F   F
  0.8213269121102371  0.9546814525814256  0.6932496502857362   F   F   F
  0.2577954121026238  0.0713387137077461  0.8010343407299203   F   F   F
  0.2442718875569128  0.5684122704053678  0.3044581665331449   F   F   F
  0.2578443189836932  0.4288002300442528  0.8011319177815750   F   F   F
  0.2448385319198465  0.9316658594687937  0.3040685219743082   F   F   F
  0.7425637392252469  0.9294293620683689  0.1995982922676873   F   F   F
  0.7560879498532032  0.4303005819290320  0.6971202627445834   F   F   F
  0.7426395520663647  0.5705046719252067  0.1994003870429353   F   F   F
  0.7561458527444671  0.0697582032741408  0.6970485038144787   F   F   F
  0.2917885707841350  0.1257945306852477  0.1066634097029961   F   F   F
  0.2085522059847662  0.6246418236504354  0.6060987465068166   F   F   F
  0.2918324297037387  0.3742367506451458  0.1068163630438690   F   F   F
  0.2084678037948251  0.8753578091057577  0.6064039115777007   F   F   F
  0.7092170846204056  0.8736604681693976  0.8951230677580782   F   F   F
  0.7912372988974639  0.3754642890848530  0.3929453925487891   F   F   F
  0.7092710293874021  0.6265142981678054  0.8952416427832333   F   F   F
  0.7912537085273073  0.1245529654100892  0.3929186986242996   F   F   F
  0.2000281117004263  0.0448839065174269  0.0272114155953176   F   F   F
  0.2992222567529979  0.5415749587087149  0.5291976918298786   F   F   F
  0.2001002073401708  0.4551925690835148  0.0272500553250552   F   F   F
  0.2990132612188319  0.9584072906028354  0.5296124667263484   F   F   F
  0.8013024533123456  0.9555345662997041  0.9712085592900053   F   F   F
  0.7006537465508060  0.4591778043545531  0.4691069064006470   F   F   F
  0.8013214345559021  0.5445348985016096  0.9710247727778309   F   F   F
  0.7008717436324261  0.0408351270666500  0.4691909858232748   F   F   F
  0.2932378007278587  0.9952956474655963  0.1455767517007942   F   F   F
  0.2040406832338633  0.4948167053802521  0.6475657584983310   F   F   F
  0.2930796291721123  0.5046249864550276  0.1457890354759854   F   F   F
  0.2039715775464401  0.0052470305470109  0.6474438525501114   F   F   F
  0.7070951479998016  0.0029441867857543  0.8520857334693659   F   F   F
  0.7971517543440072  0.5055176080339621  0.3533075197353313   F   F   F
  0.7069668699211604  0.4971835303737606  0.8517676212500405   F   F   F
  0.7971380035795192  0.9944544033643012  0.3532776903732397   F   F   F
  0.1086684308378949  0.1280708502939873  0.0974858564663705   F   F   F
  0.3885316278230135  0.6255803128098165  0.6027348541170170   F   F   F
  0.1087141693787856  0.3719595910225593  0.0976718522044635   F   F   F
  0.3884385116270153  0.8742981304350081  0.6030914632260647   F   F   F
  0.8929623518039023  0.8724661883501810  0.9012496526842142   F   F   F
  0.6104743297650259  0.3720690582880550  0.4054882366224462   F   F   F
  0.8930699506677371  0.6276238638078695  0.9010586030833707   F   F   F
  0.6104986200569797  0.1280010588631910  0.4054223466042686   F   F   F
  0.0808048980045726  0.0483043544823829  0.9452831629219176   F   F   F
  0.4172737828729112  0.5503928589803664  0.4448779926910120   F   F   F
  0.0807800886412338  0.4516849274309749  0.9452697121587761   F   F   F
  0.4166706178538391  0.9495134342069349  0.4452071717291162   F   F   F
  0.9199431175832515  0.9518306561358827  0.0542205246184295   F   F   F
  0.5831078914657013  0.4548072830572423  0.5548136291832364   F   F   F
  0.9199021027911201  0.5482462700943032  0.0541316424598506   F   F   F
  0.5831389124088062  0.0452480935217636  0.5549048482468137   F   F   F
  0.1303109527983608  0.0807430943464453  0.7670433448000793   F   F   F
  0.3709042885247129  0.5776224348643666  0.2619043540295465   F   F   F
  0.1302982108521320  0.4194330303087881  0.7670177904927726   F   F   F
  0.3715174865866970  0.9220659326286125  0.2606302899296082   F   F   F
  0.8701540581652409  0.9190063025777988  0.2321642753357906   F   F   F
  0.6287912569881300  0.4251192571152131  0.7355638550128560   F   F   F
  0.8701060236464073  0.5810480862541851  0.2322669745135997   F   F   F
  0.6289522672941601  0.0750275198217594  0.7357793172912395   F   F   F
  0.0772453779660935  0.9608160549334741  0.7943142243320551   F   F   F
  0.4276009028140280  0.4613036366153551  0.2972142908281086   F   F   F
  0.0770026893047415  0.5393485111613643  0.7945190762287027   F   F   F
  0.4274240768229802  0.0387139682624138  0.2971430840964757   F   F   F
  0.9217666412918106  0.0395377420067575  0.2053644222060242   F   F   F
  0.5685428612949508  0.5417464834208445  0.7043921285910599   F   F   F
  0.9217451355242474  0.4604279293460962  0.2052728034808950   F   F   F
  0.5690077749067584  0.9581546063049871  0.7043745032804907   F   F   F
  0.2140437818135723  0.1396478616132271  0.6475623711307890   F   F   F
  0.2824163471459471  0.6383580777179318  0.1497008913499371   F   F   F
  0.2140674433735512  0.3604139192358886  0.6474528185502493   F   F   F
  0.2840940978966913  0.8611685330991747  0.1494646454948736   F   F   F
  0.7863235179713399  0.8603359444412533  0.3516600711148428   F   F   F
  0.7123701347974389  0.3627702697526374  0.8521377999187294   F   F   F
  0.7863250148731780  0.6396934870040525  0.3517067831495524   F   F   F
  0.7123711169027587  0.1374593643514999  0.8520228283695843   F   F   F
  0.4984741475827192  0.8453724657742470  0.7070849712439511   F   F   F
  0.0028471823173604  0.3558990714543029  0.2142914959245985   F   F   F
  0.4984405012595516  0.6547163669494367  0.7074096491266459   F   F   F
  0.0028329289653684  0.1441327629386819  0.2142593992533648   F   F   F
  0.5033357409167891  0.1470407411054140  0.2905439564459797   F   F   F
  0.9987953266284464  0.6462068750119911  0.7838885901214567   F   F   F
  0.5032176956220482  0.3529662985419364  0.2905944210607103   F   F   F
  0.9987688718490801  0.8540766795033932  0.7840918230646281   F   F   F
  0.3844084732654025  0.8397347284927292  0.7960100261572336   F   F   F
  0.1198507549869063  0.3348935037470966  0.2891279811433236   F   F   F
  0.3843621058320963  0.6605086203444444  0.7955448306896642   F   F   F
  0.1198911100352902  0.1650475981775656  0.2889406195471267   F   F   F
  0.6200090933664839  0.1636167443895360  0.2128406113571586   F   F   F
  0.8813145745608750  0.6640699032424209  0.7094679214355892   F   F   F
  0.6199556589927937  0.3363617327589949  0.2129775303906243   F   F   F
  0.8813973226201384  0.8360903791515994  0.7095675005001567   F   F   F
  0.4133192531061027  0.7500739585417762  0.6553738183559261   F   F   F
  0.0729301674077121  0.2500019266191487  0.1527935593759722   F   F   F
  0.5776216987348164  0.2500584874786327  0.3506402052830637   F   F   F
  0.9262108601335228  0.7501236691840560  0.8459402872410351   F   F   F
  0.3150656833809578  0.8673310938760039  0.9574053126992865   F   F   F
  0.1828665359991533  0.3674084099134234  0.4558149963187219   F   F   F
  0.3151506516024014  0.6328735941654742  0.9576135783361721   F   F   F
  0.1828793459437392  0.1327352658155547  0.4557563303872527   F   F   F
  0.6825076284650820  0.1351201788964147  0.0446275148659865   F   F   F
  0.8169917958876596  0.6317672252600772  0.5440386580692973   F   F   F
  0.6824926518902288  0.3649402151320658  0.0447917038137646   F   F   F
  0.8170222999435808  0.8682355098368433  0.5441690636319549   F   F   F
  0.2535201259303648  0.8396801626990964  0.7871046360363607   F   F   F
  0.2502213938676832  0.3424691032922880  0.2900556155422009   F   F   F
  0.2532136681303641  0.6601764891803654  0.7870906636419406   F   F   F
  0.2502649114006275  0.1575308541677458  0.2900553458843476   F   F   F
  0.7505678959888726  0.1593379063925298  0.2098569638751187   F   F   F
  0.7509221558014474  0.6570012796893963  0.7106205441123379   F   F   F
  0.7505391035532298  0.3406817025308442  0.2098432117810418   F   F   F
  0.7509342706234463  0.8430057176695485  0.7106651646911999   F   F   F
  0.2949800308518107  0.7505128550366464  0.0469764807464443   F   F   F
  0.2022407118712621  0.2500988081240294  0.5428184842069257   F   F   F
  0.7051672438091572  0.2499925330503032  0.9514236296656762   F   F   F
  0.8017194863359549  0.7500052212721258  0.4570926675611133   F   F   F
  0.1945957008873833  0.8327040324605974  0.0097475247373922   F   F   F
  0.3034050855633978  0.3323921854722158  0.5082204372654573   F   F   F
  0.1946732784637533  0.6680978947406615  0.0089728790734895   F   F   F
  0.3033165092460450  0.1677232776844946  0.5082766184577849   F   F   F
  0.8034502585908783  0.1647094784854275  0.9888028606256754   F   F   F
  0.6976179148330957  0.6717314551464639  0.4904721741972011   F   F   F
  0.8034691959375948  0.3353061336357683  0.9888548741916523   F   F   F
  0.6976995333800033  0.8278327117705118  0.4905204702275014   F   F   F
  0.0913808358246015  0.7501976445446985  0.0256156528761267   F   F   F
  0.4062749272612152  0.2501074170175315  0.5244907613178924   F   F   F
  0.9046602219232867  0.2499563892296663  0.9752734976692850   F   F   F
  0.5917224436328112  0.7499013067740918  0.4648601440186155   F   F   F
  0.0796673464649871  0.8691785045763396  0.9376522249362012   F   F   F
  0.4190091480936147  0.3699159221429511  0.4392310948996965   F   F   F
  0.0796455891108536  0.6310960727809984  0.9373379667298209   F   F   F
  0.4188815686255225  0.1302506891922732  0.4393728109342447   F   F   F
  0.9190176078468255  0.1316397048892242  0.0636663314748347   F   F   F
  0.5836064802185774  0.6324977469937352  0.5613757047970722   F   F   F
  0.9190549437257545  0.3683311948588752  0.0636404803123298   F   F   F
  0.5835954733456035  0.8675727614913029  0.5612546370845664   F   F   F
  0.1255445809845881  0.8400752329770356  0.7535737773839131   F   F   F
  0.3776793579285567  0.3422498070036468  0.2527184419222408   F   F   F
  0.1254413364821332  0.6598728422373981  0.7533024861785549   F   F   F
  0.3775259305278382  0.1579474704842596  0.2523857093170605   F   F   F
  0.8772938874926339  0.1608166504353790  0.2500627250925902   F   F   F
  0.6238940529235251  0.6587718126091957  0.7489682288430757   F   F   F
  0.8772697425999070  0.3391675500342970  0.2501011080793560   F   F   F
  0.6239548140033548  0.8411711249112344  0.7487741673955099   F   F   F
  0.2007401587328559  0.7500295300569206  0.6640867747539261   F   F   F
  0.3013379294832035  0.2500048824068841  0.1692811766492497   F   F   F
  0.7993169740491552  0.2499591315818179  0.3357890621136548   F   F   F
  0.7013938932413097  0.7501301356173329  0.8317641387942558   F   F   F
  0.4240570358577926  0.0707223592657797  0.6892057369090452   F   F   F
  0.0756287480311144  0.5696480946281781  0.1901106650704776   F   F   F
  0.4239740959024729  0.4293269055013766  0.6892467286834076   F   F   F
  0.0756155988655820  0.9304164419988723  0.1901505590947536   F   F   F
  0.5758392585520369  0.9308041453488229  0.3089344362652895   F   F   F
  0.9250077625401332  0.4296544038150998  0.8096400877328023   F   F   F
  0.5759574509550873  0.5691574548275398  0.3089038648949298   F   F   F
  0.9250539075018622  0.0703810816340109  0.8096241686560930   F   F   F
  0.3220111076337702  0.0327631465111295  0.8438808569305678   F   F   F
  0.1778342288429116  0.5318253392117782  0.3442836406819936   F   F   F
  0.3220118293905117  0.4673977568059158  0.8440058088523870   F   F   F
  0.1781453252581571  0.9681263388645434  0.3442211977161165   F   F   F
  0.6784365151271459  0.9684189605738354  0.1558550615777037   F   F   F
  0.8222591479464825  0.4674176778201655  0.6561887807210098   F   F   F
  0.6784513059276662  0.5316851935702616  0.1557902381625595   F   F   F
  0.8222110843614985  0.0326394167300421  0.6561556592572799   F   F   F
  0.2767193624959035  0.0515585899231610  0.0616324203246350   F   F   F
  0.2221722879181058  0.5498332307137090  0.5624002107200994   F   F   F
  0.2766494033827911  0.4485748376364000  0.0618586192308186   F   F   F
  0.2222437045024321  0.9501054572273446  0.5625671288789462   F   F   F
  0.7243334091743776  0.9483002022180216  0.9382067525168694   F   F   F
  0.7780048788992389  0.4503510394685009  0.4371941886440496   F   F   F
  0.7244433287344592  0.5518195615730264  0.9381406065918085   F   F   F
  0.7779295511972393  0.0496378813191001  0.4372777532386820   F   F   F
  0.1216332800053834  0.0542097102117864  0.0488258110715378   F   F   F
  0.3769171161381735  0.5534692180988827  0.5494499120323297   F   F   F
  0.1216971871505450  0.4459128222139768  0.0488855607652496   F   F   F
  0.3770545173624811  0.9465812434154017  0.5494042428047692   F   F   F
  0.8796272918138399  0.9460331065284109  0.9501349884667292   F   F   F
  0.6227286691842693  0.4468616575071422  0.4509786617723535   F   F   F
  0.8796151494509914  0.5540406449556343  0.9500485231135798   F   F   F
  0.6226928384351140  0.0530870800849286  0.4509113740903743   F   F   F
  0.0731298386970067  0.0396061945055664  0.8249962661212393   F   F   F
  0.4276811610341937  0.5414178406737378  0.3255087855561385   F   F   F
  0.0730544341129828  0.4604438770585375  0.8251149663068418   F   F   F
  0.4276667786973576  0.9589877677406449  0.3257049247734187   F   F   F
  0.9271733064114187  0.9605906050798652  0.1743479938099455   F   F   F
  0.5712217566171205  0.4628284279318677  0.6744241678946992   F   F   F
  0.9272375195702125  0.5394590992315784  0.1743249695241431   F   F   F
  0.5712810010716609  0.0372617427990747  0.6742969079132806   F   F   F
  0.2016017394789884  0.0731441828971313  0.7145935096638070   F   F   F
  0.2976717842445709  0.5719527011141636  0.2147083222336335   F   F   F
  0.2016173447679108  0.4270332699384625  0.7146524173470397   F   F   F
  0.2982343272115315  0.9284341877132576  0.2146505791534281   F   F   F
  0.7989651394951593  0.9267197206324340  0.2851755060849896   F   F   F
  0.7013360590446069  0.4296743481530427  0.7853176201455199   F   F   F
  0.7990672275990036  0.5732844766330345  0.2852196867466006   F   F   F
  0.7013352906814632  0.0705137450572977  0.7851682891395342   F   F   F
  0.4218137694821422  0.8277248677662854  0.6895035080434866   F   F   F
  0.0758809644809375  0.3283447523235523  0.1878511726849865   F   F   F
  0.4216739279815727  0.6720304877350571  0.6895537375028553   F   F   F
  0.0758986375372146  0.1717391180260890  0.1878373164893574   F   F   F
  0.5774588864399632  0.1717878950144183  0.3153934861610210   F   F   F
  0.9251997036033117  0.6718017243713277  0.8107072416476342   F   F   F
  0.5775235532700407  0.3280865230866254  0.3152571797513062   F   F   F
  0.9251989086342363  0.8282967395823846  0.8108625980172164   F   F   F
  0.3175577957761107  0.8750486457186497  0.8366384733496943   F   F   F
  0.1828119479502277  0.3746373615584204  0.3347494353682947   F   F   F
  0.3174835917174761  0.6249231693574160  0.8372054440704986   F   F   F
  0.1828611054586773  0.1254833499185466  0.3348084017620465   F   F   F
  0.6836752185133292  0.1262896207035666  0.1653799136434202   F   F   F
  0.8178234358766971  0.6248761546458397  0.6648821984409707   F   F   F
  0.6837719931923658  0.3737395619210631  0.1653541936405674   F   F   F
  0.8178293216687393  0.8751477208848470  0.6648987911061326   F   F   F
  0.2711839384271357  0.8276429446821894  0.0404848233514699   F   F   F
  0.2260898224351706  0.3276281446288536  0.5391299964974792   F   F   F
  0.2715193802381748  0.6721130456849096  0.0410736321415115   F   F   F
  0.2261071918301880  0.1725341157309543  0.5390316295319124   F   F   F
  0.7265043516855272  0.1719089786745585  0.9589400567202517   F   F   F
  0.7755125059189538  0.6731675708563003  0.4604572998000123   F   F   F
  0.7265073031919655  0.3282505013922901  0.9590404260723844   F   F   F
  0.7753718572725177  0.8266979235550664  0.4605183578608276   F   F   F
  0.1153196899354043  0.8279671990637638  0.0267000637302957   F   F   F
  0.3818830723494671  0.3278287825014914  0.5270351568222651   F   F   F
  0.1156211988441456  0.6721565423235347  0.0266819922265640   F   F   F
  0.3819436212978573  0.1721126536703466  0.5268567258618830   F   F   F
  0.8826059035545200  0.1715947333733183  0.9735419641880867   F   F   F
  0.6193530264683673  0.6720911248087091  0.4713553732208666   F   F   F
  0.8825954285244890  0.3284400654499251  0.9735577507448738   F   F   F
  0.6193876914914185  0.8276924688505645  0.4709927573042521   F   F   F
  0.0707492212592342  0.8809116897281726  0.8175890037342342   F   F   F
  0.4312480532059979  0.3815167626955258  0.3201549217092463   F   F   F
  0.0706844801065216  0.6192993962079285  0.8176642755666776   F   F   F
  0.4312080010780548  0.1184189346336098  0.3201940326539230   F   F   F
  0.9299770805978014  0.1192066855939373  0.1827870429087284   F   F   F
  0.5690880137250929  0.6220706744529068  0.6806469243866715   F   F   F
  0.9299578132236164  0.3808762957097187  0.1827632097795373   F   F   F
  0.5693409507714762  0.8779612644298993  0.6801378021931157   F   F   F
  0.1969376101652074  0.8271985181549084  0.7029084960253940   F   F   F
  0.3052000941192077  0.3279290439353488  0.2046993720176360   F   F   F
  0.1969509826232709  0.6726079471967097  0.7030071041571162   F   F   F
  0.3053994969194349  0.1721577076604106  0.2048442067693372   F   F   F
  0.8048052810559909  0.1727608306124822  0.2972227632578921   F   F   F
  0.6963191346018505  0.6722009048585988  0.7965907968957495   F   F   F
  0.8048542722258887  0.3272967273696139  0.2972091855339514   F   F   F
  0.6962858871649402  0.8276885107211029  0.7963972004721782   F   F   F
  0.4742013107022274  0.7473466439453276  0.3559446659187842   F   F   F
  0.3871025856857884  0.7509842693387512  0.2338266249378478   F   F   F
  0.3683352722305315  0.7497973117700951  0.4114717316137444   F   F   F
  0.4690918348693103  0.7613957160942206  0.1507314829665916   T   T   T
  0.5327654036307976  0.7376773339252054  0.1470493687602215   T   T   T
  0.5430482776226953  0.6828169362945715  0.1381321525842552   T   T   T
  0.4670630898406571  0.8163358095847073  0.1295197643264530   T   T   T
  0.5718699486356016  0.7751873246535155  0.1366758884442660   T   T   T
  0.4253176458836663  0.7091306046773269  0.1359066791554994   T   T   T
 
  0.00000000E+00  0.00000000E+00  0.00000000E+00
  0.00000000E+00  0.00000000E+00  0.00000000E+00
  0.00000000E+00  0.00000000E+00  0.00000000E+00
  0.00000000E+00  0.00000000E+00  0.00000000E+00
  0.00000000E+00  0.00000000E+00  0.00000000E+00
  0.00000000E+00  0.00000000E+00  0.00000000E+00
  0.00000000E+00  0.00000000E+00  0.00000000E+00
  0.00000000E+00  0.00000000E+00  0.00000000E+00
  0.00000000E+00  0.00000000E+00  0.00000000E+00
  0.00000000E+00  0.00000000E+00  0.00000000E+00
  0.00000000E+00  0.00000000E+00  0.00000000E+00
  0.00000000E+00  0.00000000E+00  0.00000000E+00
  0.00000000E+00  0.00000000E+00  0.00000000E+00
  0.00000000E+00  0.00000000E+00  0.00000000E+00
  0.00000000E+00  0.00000000E+00  0.00000000E+00
  0.00000000E+00  0.00000000E+00  0.00000000E+00
  0.00000000E+00  0.00000000E+00  0.00000000E+00
  0.00000000E+00  0.00000000E+00  0.00000000E+00
  0.00000000E+00  0.00000000E+00  0.00000000E+00
  0.00000000E+00  0.00000000E+00  0.00000000E+00
  0.00000000E+00  0.00000000E+00  0.00000000E+00
  0.00000000E+00  0.00000000E+00  0.00000000E+00
  0.00000000E+00  0.00000000E+00  0.00000000E+00
  0.00000000E+00  0.00000000E+00  0.00000000E+00
  0.00000000E+00  0.00000000E+00  0.00000000E+00
  0.00000000E+00  0.00000000E+00  0.00000000E+00
  0.00000000E+00  0.00000000E+00  0.00000000E+00
  0.00000000E+00  0.00000000E+00  0.00000000E+00
  0.00000000E+00  0.00000000E+00  0.00000000E+00
  0.00000000E+00  0.00000000E+00  0.00000000E+00
  0.00000000E+00  0.00000000E+00  0.00000000E+00
  0.00000000E+00  0.00000000E+00  0.00000000E+00
  0.00000000E+00  0.00000000E+00  0.00000000E+00
  0.00000000E+00  0.00000000E+00  0.00000000E+00
  0.00000000E+00  0.00000000E+00  0.00000000E+00
  0.00000000E+00  0.00000000E+00  0.00000000E+00
  0.00000000E+00  0.00000000E+00  0.00000000E+00
  0.00000000E+00  0.00000000E+00  0.00000000E+00
  0.00000000E+00  0.00000000E+00  0.00000000E+00
  0.00000000E+00  0.00000000E+00  0.00000000E+00
  0.00000000E+00  0.00000000E+00  0.00000000E+00
  0.00000000E+00  0.00000000E+00  0.00000000E+00
  0.00000000E+00  0.00000000E+00  0.00000000E+00
  0.00000000E+00  0.00000000E+00  0.00000000E+00
  0.00000000E+00  0.00000000E+00  0.00000000E+00
  0.00000000E+00  0.00000000E+00  0.00000000E+00
  0.00000000E+00  0.00000000E+00  0.00000000E+00
  0.00000000E+00  0.00000000E+00  0.00000000E+00
  0.00000000E+00  0.00000000E+00  0.00000000E+00
  0.00000000E+00  0.00000000E+00  0.00000000E+00
  0.00000000E+00  0.00000000E+00  0.00000000E+00
  0.00000000E+00  0.00000000E+00  0.00000000E+00
  0.00000000E+00  0.00000000E+00  0.00000000E+00
  0.00000000E+00  0.00000000E+00  0.00000000E+00
  0.00000000E+00  0.00000000E+00  0.00000000E+00
  0.00000000E+00  0.00000000E+00  0.00000000E+00
  0.00000000E+00  0.00000000E+00  0.00000000E+00
  0.00000000E+00  0.00000000E+00  0.00000000E+00
  0.00000000E+00  0.00000000E+00  0.00000000E+00
  0.00000000E+00  0.00000000E+00  0.00000000E+00
  0.00000000E+00  0.00000000E+00  0.00000000E+00
  0.00000000E+00  0.00000000E+00  0.00000000E+00
  0.00000000E+00  0.00000000E+00  0.00000000E+00
  0.00000000E+00  0.00000000E+00  0.00000000E+00
  0.00000000E+00  0.00000000E+00  0.00000000E+00
  0.00000000E+00  0.00000000E+00  0.00000000E+00
  0.00000000E+00  0.00000000E+00  0.00000000E+00
  0.00000000E+00  0.00000000E+00  0.00000000E+00
  0.00000000E+00  0.00000000E+00  0.00000000E+00
  0.00000000E+00  0.00000000E+00  0.00000000E+00
  0.00000000E+00  0.00000000E+00  0.00000000E+00
  0.00000000E+00  0.00000000E+00  0.00000000E+00
  0.00000000E+00  0.00000000E+00  0.00000000E+00
  0.00000000E+00  0.00000000E+00  0.00000000E+00
  0.00000000E+00  0.00000000E+00  0.00000000E+00
  0.00000000E+00  0.00000000E+00  0.00000000E+00
  0.00000000E+00  0.00000000E+00  0.00000000E+00
  0.00000000E+00  0.00000000E+00  0.00000000E+00
  0.00000000E+00  0.00000000E+00  0.00000000E+00
  0.00000000E+00  0.00000000E+00  0.00000000E+00
  0.00000000E+00  0.00000000E+00  0.00000000E+00
  0.00000000E+00  0.00000000E+00  0.00000000E+00
  0.00000000E+00  0.00000000E+00  0.00000000E+00
  0.00000000E+00  0.00000000E+00  0.00000000E+00
  0.00000000E+00  0.00000000E+00  0.00000000E+00
  0.00000000E+00  0.00000000E+00  0.00000000E+00
  0.00000000E+00  0.00000000E+00  0.00000000E+00
  0.00000000E+00  0.00000000E+00  0.00000000E+00
  0.00000000E+00  0.00000000E+00  0.00000000E+00
  0.00000000E+00  0.00000000E+00  0.00000000E+00
  0.00000000E+00  0.00000000E+00  0.00000000E+00
  0.00000000E+00  0.00000000E+00  0.00000000E+00
  0.00000000E+00  0.00000000E+00  0.00000000E+00
  0.00000000E+00  0.00000000E+00  0.00000000E+00
  0.00000000E+00  0.00000000E+00  0.00000000E+00
  0.00000000E+00  0.00000000E+00  0.00000000E+00
  0.00000000E+00  0.00000000E+00  0.00000000E+00
  0.00000000E+00  0.00000000E+00  0.00000000E+00
  0.00000000E+00  0.00000000E+00  0.00000000E+00
  0.00000000E+00  0.00000000E+00  0.00000000E+00
  0.00000000E+00  0.00000000E+00  0.00000000E+00
  0.00000000E+00  0.00000000E+00  0.00000000E+00
  0.00000000E+00  0.00000000E+00  0.00000000E+00
  0.00000000E+00  0.00000000E+00  0.00000000E+00
  0.00000000E+00  0.00000000E+00  0.00000000E+00
  0.00000000E+00  0.00000000E+00  0.00000000E+00
  0.00000000E+00  0.00000000E+00  0.00000000E+00
  0.00000000E+00  0.00000000E+00  0.00000000E+00
  0.00000000E+00  0.00000000E+00  0.00000000E+00
  0.00000000E+00  0.00000000E+00  0.00000000E+00
  0.00000000E+00  0.00000000E+00  0.00000000E+00
  0.00000000E+00  0.00000000E+00  0.00000000E+00
  0.00000000E+00  0.00000000E+00  0.00000000E+00
  0.00000000E+00  0.00000000E+00  0.00000000E+00
  0.00000000E+00  0.00000000E+00  0.00000000E+00
  0.00000000E+00  0.00000000E+00  0.00000000E+00
  0.00000000E+00  0.00000000E+00  0.00000000E+00
  0.00000000E+00  0.00000000E+00  0.00000000E+00
  0.00000000E+00  0.00000000E+00  0.00000000E+00
  0.00000000E+00  0.00000000E+00  0.00000000E+00
  0.00000000E+00  0.00000000E+00  0.00000000E+00
  0.00000000E+00  0.00000000E+00  0.00000000E+00
  0.00000000E+00  0.00000000E+00  0.00000000E+00
  0.00000000E+00  0.00000000E+00  0.00000000E+00
  0.00000000E+00  0.00000000E+00  0.00000000E+00
  0.00000000E+00  0.00000000E+00  0.00000000E+00
  0.00000000E+00  0.00000000E+00  0.00000000E+00
  0.00000000E+00  0.00000000E+00  0.00000000E+00
  0.00000000E+00  0.00000000E+00  0.00000000E+00
  0.00000000E+00  0.00000000E+00  0.00000000E+00
  0.00000000E+00  0.00000000E+00  0.00000000E+00
  0.00000000E+00  0.00000000E+00  0.00000000E+00
  0.00000000E+00  0.00000000E+00  0.00000000E+00
  0.00000000E+00  0.00000000E+00  0.00000000E+00
  0.00000000E+00  0.00000000E+00  0.00000000E+00
  0.00000000E+00  0.00000000E+00  0.00000000E+00
  0.00000000E+00  0.00000000E+00  0.00000000E+00
  0.00000000E+00  0.00000000E+00  0.00000000E+00
  0.00000000E+00  0.00000000E+00  0.00000000E+00
  0.00000000E+00  0.00000000E+00  0.00000000E+00
  0.00000000E+00  0.00000000E+00  0.00000000E+00
  0.00000000E+00  0.00000000E+00  0.00000000E+00
  0.00000000E+00  0.00000000E+00  0.00000000E+00
  0.00000000E+00  0.00000000E+00  0.00000000E+00
  0.00000000E+00  0.00000000E+00  0.00000000E+00
  0.00000000E+00  0.00000000E+00  0.00000000E+00
  0.00000000E+00  0.00000000E+00  0.00000000E+00
  0.00000000E+00  0.00000000E+00  0.00000000E+00
  0.00000000E+00  0.00000000E+00  0.00000000E+00
  0.00000000E+00  0.00000000E+00  0.00000000E+00
  0.00000000E+00  0.00000000E+00  0.00000000E+00
  0.00000000E+00  0.00000000E+00  0.00000000E+00
  0.00000000E+00  0.00000000E+00  0.00000000E+00
  0.00000000E+00  0.00000000E+00  0.00000000E+00
  0.00000000E+00  0.00000000E+00  0.00000000E+00
  0.00000000E+00  0.00000000E+00  0.00000000E+00
  0.00000000E+00  0.00000000E+00  0.00000000E+00
  0.00000000E+00  0.00000000E+00  0.00000000E+00
  0.00000000E+00  0.00000000E+00  0.00000000E+00
  0.00000000E+00  0.00000000E+00  0.00000000E+00
  0.00000000E+00  0.00000000E+00  0.00000000E+00
  0.00000000E+00  0.00000000E+00  0.00000000E+00