O  Si Ru C  H                           
   1.00000000000000     
    20.3096463179830877    0.0000000000000000    0.0000000000000000
     0.0000000000000000   19.8625212307842212    0.0000000000000000
     0.0000000000000000    0.0000000000000000   13.3711533343531652
   O    Si   Ru   C    H 
   192    96     3     2     3
Selective dynamics
Direct
  0.5032358036923128  0.0735586975309630  0.7052376599477981   F   F   F
  0.9965574376307202  0.5698816662671007  0.2102608092306255   F   F   F
  0.5030781254414336  0.4262680230548881  0.7068451153073809   F   F   F
  0.9968123906468662  0.9302471942855775  0.2109754069519880   F   F   F
  0.4987978689181247  0.9269073923931614  0.2940648603610683   F   F   F
  0.0035287439765526  0.4287956573473579  0.7899961182240176   F   F   F
  0.4977388527043232  0.5751260860280070  0.2943151395597354   F   F   F
  0.0034686639067587  0.0707686913504801  0.7889139541652099   F   F   F
  0.3892280909774897  0.0654435668967039  0.7981235425947162   F   F   F
  0.1134304185819417  0.5677264539241733  0.2978519451347097   F   F   F
  0.3888629930519301  0.4339246935701837  0.8009848685087420   F   F   F
  0.1129683122312244  0.9327115454271748  0.2986562361270941   F   F   F
  0.6109899478277043  0.9359359755611365  0.1987598201665222   F   F   F
  0.8878673060648765  0.4316221788533667  0.7022955014009824   F   F   F
  0.6113361967484039  0.5643632796134881  0.1983356918041537   F   F   F
  0.8876159276466922  0.0684713969251547  0.7016158790871003   F   F   F
  0.3999453233812247  0.1399986194870451  0.6351267629297510   F   F   F
  0.0957401881747657  0.6389949901916765  0.1335952640204354   F   F   F
  0.3998771563263190  0.3606632032358164  0.6347523242239248   F   F   F
  0.0953338031397024  0.8610458075744774  0.1337515472021593   F   F   F
  0.6097442652732781  0.8699105851106310  0.3688905619774374   F   F   F
  0.9037189634668934  0.3612229752927831  0.8671128557240095   F   F   F
  0.6068606028678829  0.6329402907569630  0.3668657734250189   F   F   F
  0.9040704079637578  0.1386776171638431  0.8675356731768602   F   F   F
  0.4046941328393743  0.0052514658356131  0.6200805431142697   F   F   F
  0.0961878735832755  0.5041847162197399  0.1235609539746036   F   F   F
  0.4048294061040778  0.4966543695150918  0.6250448872687997   F   F   F
  0.0956686285407642  0.9955642181895286  0.1238230641479419   F   F   F
  0.5926721833231881  0.0014965385056485  0.3694691451875016   F   F   F
  0.9053970452075220  0.4953220630018080  0.8751335987489526   F   F   F
  0.5934801398220912  0.5015421293828979  0.3717139597032713   F   F   F
  0.9055115750092355  0.0042940917978314  0.8754119858007172   F   F   F
  0.3236449058242741  0.0394436975549439  0.9636731987052016   F   F   F
  0.1759395587946315  0.5372393463084606  0.4661260455881049   F   F   F
  0.3234981110051578  0.4608779029959749  0.9648215779704330   F   F   F
  0.1756453691038615  0.9617417618607647  0.4650309798103294   F   F   F
  0.6780982650336185  0.9628267994627890  0.0351617346403188   F   F   F
  0.8235568545721677  0.4613739298877775  0.5347108393301596   F   F   F
  0.6776924760677190  0.5375252439554288  0.0342576257017697   F   F   F
  0.8241091852168694  0.0385532502942922  0.5353362836507216   F   F   F
  0.3187730865745024  0.9537982236900007  0.8072599937536324   F   F   F
  0.1798328356308829  0.4540671388338495  0.3064141012450108   F   F   F
  0.3185029368586356  0.5447960530806242  0.8075599820586206   F   F   F
  0.1795533007575756  0.0457470462800487  0.3067527949617030   F   F   F
  0.6830946380071197  0.0463297371498754  0.1919171451640906   F   F   F
  0.8213993948781777  0.5447645617578516  0.6934173655627234   F   F   F
  0.6824407390105733  0.4528885407803145  0.1916297757056000   F   F   F
  0.8214060843259148  0.9552173204858718  0.6934020482059395   F   F   F
  0.2578269834198039  0.0707752759934266  0.8003423942757664   F   F   F
  0.2448168311390404  0.5686451613186705  0.3055296160423211   F   F   F
  0.2578097706860092  0.4289135844672174  0.8007677384742067   F   F   F
  0.2441168613989575  0.9312626821462189  0.3034632599602887   F   F   F
  0.7424970713942329  0.9294538279383104  0.1986490632063038   F   F   F
  0.7561919692823977  0.4300599204992182  0.6966026473294207   F   F   F
  0.7425782211521508  0.5711164714390122  0.1998221228738828   F   F   F
  0.7561225676844572  0.0701631154668050  0.6963458830183953   F   F   F
  0.2919782566045441  0.1254666391327461  0.1060022111531254   F   F   F
  0.2088339942207043  0.6246225625735775  0.6064715238586516   F   F   F
  0.2918905209696661  0.3743348160752831  0.1077498929388270   F   F   F
  0.2082855056369581  0.8751037408092230  0.6069977439230883   F   F   F
  0.7094347698298478  0.8737783412418096  0.8954205355582161   F   F   F
  0.7911126049789630  0.3756299593337857  0.3932556141447634   F   F   F
  0.7086215403378660  0.6264322244552147  0.8944533483258468   F   F   F
  0.7909704214221307  0.1245261166993856  0.3927713018489101   F   F   F
  0.1996082019403715  0.0457609516029294  0.0259961373827053   F   F   F
  0.2991402586009499  0.5409171003240658  0.5306259285795321   F   F   F
  0.2003364495962003  0.4544713582565265  0.0270385123358778   F   F   F
  0.2991866210510423  0.9580082464653117  0.5294492356078422   F   F   F
  0.8013224799570366  0.9557193325009763  0.9707776980387663   F   F   F
  0.7010000308792499  0.4596914706266730  0.4685922921407979   F   F   F
  0.8018327979776103  0.5445701263575486  0.9711862927058803   F   F   F
  0.7007253762108760  0.0401993808551353  0.4691003642026885   F   F   F
  0.2926089034919741  0.9943643790452086  0.1443664582718966   F   F   F
  0.2041911925945001  0.4956593537890654  0.6470949206160554   F   F   F
  0.2926791691975055  0.5051198203508562  0.1466635521954984   F   F   F
  0.2043207799210265  0.0051639967361226  0.6465298100834289   F   F   F
  0.7070902417946030  0.0033648640249169  0.8511781970380454   F   F   F
  0.7971995801739880  0.5057392888296519  0.3528109475674555   F   F   F
  0.7070554449581721  0.4970289660815226  0.8517396722645501   F   F   F
  0.7972281515685040  0.9944825261270296  0.3525297084697812   F   F   F
  0.1084057862986398  0.1280188242217974  0.0977133986555643   F   F   F
  0.3894093113135284  0.6282672226586499  0.5964730205838649   F   F   F
  0.1087058559453951  0.3719393345870543  0.0978599228779444   F   F   F
  0.3882326430924579  0.8740041091451758  0.6026923504677342   F   F   F
  0.8934804902007158  0.8720465805275381  0.9011812855461514   F   F   F
  0.6115035986388619  0.3704343980370481  0.4057196194742261   F   F   F
  0.8931497471409671  0.6275962447177292  0.9006992132839216   F   F   F
  0.6117046449070358  0.1293121277011480  0.4072271322562955   F   F   F
  0.0801089721525372  0.0483940253888875  0.9448626968303557   F   F   F
  0.4177588145407185  0.5472679607550077  0.4439886967553406   F   F   F
  0.0804191042688984  0.4516927407870099  0.9453750020590874   F   F   F
  0.4167151339034731  0.9488854385491550  0.4447548543084139   F   F   F
  0.9198538714118740  0.9519439922321311  0.0546124427529833   F   F   F
  0.5827345272562070  0.4543301159508815  0.5549289734309255   F   F   F
  0.9197255195559819  0.5483493392612075  0.0548211640329157   F   F   F
  0.5835212021367653  0.0447539050203005  0.5541067702901969   F   F   F
  0.1304997250703650  0.0804719563023255  0.7668882443614038   F   F   F
  0.3717988819138185  0.5770084535725388  0.2621478709042862   F   F   F
  0.1298512719967491  0.4193364480759030  0.7677232316941769   F   F   F
  0.3706477077105887  0.9234543590441575  0.2604626658762044   F   F   F
  0.8696946346929408  0.9188140881198450  0.2329994923495349   F   F   F
  0.6299443916368048  0.4243506788507787  0.7365521634724956   F   F   F
  0.8695235548116855  0.5813578673843978  0.2326775396230119   F   F   F
  0.6291739626326347  0.0753507321685944  0.7357734496021919   F   F   F
  0.0777504248078316  0.9603349087486350  0.7945558152177483   F   F   F
  0.4279056220510284  0.4608081315246579  0.2964310775248507   F   F   F
  0.0775186680469560  0.5394708264845676  0.7942617599412785   F   F   F
  0.4268508849633434  0.0384977847321082  0.2981243928466171   F   F   F
  0.9213168086449173  0.0392981073735967  0.2057389682615423   F   F   F
  0.5699484640950203  0.5420719353608163  0.7041085471012423   F   F   F
  0.9217248987580717  0.4607155282366051  0.2051333772986865   F   F   F
  0.5687945825012761  0.9579242073820424  0.7057413607856731   F   F   F
  0.2142946879621732  0.1396344925581374  0.6478703911054637   F   F   F
  0.2824586357696077  0.6398700918888451  0.1483789740552268   F   F   F
  0.2140285063197211  0.3600374354276283  0.6473239270692872   F   F   F
  0.2859926004201867  0.8593833478871744  0.1497055810681189   F   F   F
  0.7849375665778524  0.8605740230942232  0.3535889583113843   F   F   F
  0.7131859483046199  0.3623733825071795  0.8522533184281542   F   F   F
  0.7849548401265665  0.6393330251076321  0.3522894840524486   F   F   F
  0.7125847589102676  0.1373717334947031  0.8512388011267333   F   F   F
  0.4984706440922722  0.8458822453512553  0.7081577901340452   F   F   F
  0.0027805829799519  0.3559908069703184  0.2146278730060232   F   F   F
  0.4974042261129554  0.6520608280512619  0.7079296345409176   F   F   F
  0.0027995872587567  0.1439365240470067  0.2150200987752697   F   F   F
  0.5037868598446167  0.1467280914853077  0.2910981837738902   F   F   F
  0.9988608740106386  0.6457744711695383  0.7827081350702372   F   F   F
  0.5038803777924272  0.3528808355720656  0.2908159516565547   F   F   F
  0.9986397437415206  0.8543184618150050  0.7834174705131645   F   F   F
  0.3838277907333421  0.8386727141778323  0.7959018186339009   F   F   F
  0.1197891815807495  0.3353006812206871  0.2897965643076006   F   F   F
  0.3838677148141016  0.6594086960245988  0.7932783391926890   F   F   F
  0.1200794528286195  0.1645102857021783  0.2895659122656937   F   F   F
  0.6199805126412983  0.1631669251109713  0.2131141741771287   F   F   F
  0.8811224877677404  0.6639559744928079  0.7093587129078358   F   F   F
  0.6195954230400744  0.3364672941075924  0.2122498631350496   F   F   F
  0.8809396043047713  0.8363505252886938  0.7098736235092247   F   F   F
  0.4140073771490904  0.7496082733025062  0.6532522590539926   F   F   F
  0.0728718374958106  0.2500788303986710  0.1535501510116148   F   F   F
  0.5780261977722247  0.2505154113033541  0.3496392794267322   F   F   F
  0.9264126944986089  0.7501284316876564  0.8451313071859161   F   F   F
  0.3158265173957062  0.8680796764234557  0.9572628073924108   F   F   F
  0.1827682357827598  0.3677720910440740  0.4558156225912171   F   F   F
  0.3151379112613029  0.6328541967580747  0.9577128447713434   F   F   F
  0.1829970994312404  0.1326354414532531  0.4557357383324003   F   F   F
  0.6825736586616742  0.1348464188326020  0.0441737012351666   F   F   F
  0.8156393327893099  0.6319248575110450  0.5432895971846250   F   F   F
  0.6827499477669221  0.3652871537647187  0.0437857823638979   F   F   F
  0.8167544770088568  0.8680048486699690  0.5440966163865966   F   F   F
  0.2533640955475391  0.8398813266049245  0.7885519149143150   F   F   F
  0.2499738088001777  0.3420206518087952  0.2902563049873734   F   F   F
  0.2529842570924288  0.6607078152746126  0.7873204745648081   F   F   F
  0.2502534544915846  0.1577076905333996  0.2904254475878432   F   F   F
  0.7506235886776764  0.1596490109883248  0.2097619567574185   F   F   F
  0.7505548505379949  0.6566488403896642  0.7105421891390336   F   F   F
  0.7503051228002846  0.3404420727369910  0.2095915133568198   F   F   F
  0.7510383991683156  0.8436541540791680  0.7104023577898815   F   F   F
  0.2928693943582203  0.7499467979385273  0.0424491865164995   F   F   F
  0.2020875948815188  0.2498193442461911  0.5430584766666016   F   F   F
  0.7055653239581900  0.2499688855101283  0.9519377731424115   F   F   F
  0.8029816721830656  0.7498637253150378  0.4577253574633460   F   F   F
  0.1945093862873719  0.8369020676569789  0.0102546156153949   F   F   F
  0.3032135004465104  0.3324644474509739  0.5089591789309225   F   F   F
  0.1946085890712226  0.6646749533605032  0.0068980235466114   F   F   F
  0.3035179341782737  0.1683604089064588  0.5085814041726167   F   F   F
  0.8033437172139841  0.1645029094793671  0.9890554101111917   F   F   F
  0.6972443364797059  0.6751045964496498  0.4920825930997097   F   F   F
  0.8031333046183065  0.3353966895677942  0.9896771095174444   F   F   F
  0.6988757548629678  0.8252217744445360  0.4949112653003525   F   F   F
  0.0931971057116385  0.7505569266989198  0.0254260616042572   F   F   F
  0.4063328024801862  0.2504256123830544  0.5260305995195864   F   F   F
  0.9049329802733084  0.2500967885254894  0.9750914919668077   F   F   F
  0.5928061603231498  0.7513889715730855  0.4650880099880297   F   F   F
  0.0785543522563685  0.8690823924639233  0.9375580227922455   F   F   F
  0.4187271799645060  0.3703996915726364  0.4404957407759724   F   F   F
  0.0776888719355782  0.6311545892117607  0.9373870893461813   F   F   F
  0.4191949436662128  0.1310008687576243  0.4394477839118522   F   F   F
  0.9193532838952976  0.1317693701074205  0.0635864579409002   F   F   F
  0.5828191409913046  0.6339921122366334  0.5605945325730843   F   F   F
  0.9194628247459349  0.3683905221368136  0.0634362296041573   F   F   F
  0.5838973799624156  0.8680716804184243  0.5632034527673397   F   F   F
  0.1259312563517341  0.8392794528728302  0.7535140895072558   F   F   F
  0.3772740007034798  0.3418080720029124  0.2524120328142558   F   F   F
  0.1257224649105524  0.6598151322871217  0.7537866275618015   F   F   F
  0.3780276497578328  0.1583366026935167  0.2527370262022970   F   F   F
  0.8772694760137867  0.1610733444169554  0.2504868193020258   F   F   F
  0.6235210365889543  0.6596606407243684  0.7498127028350225   F   F   F
  0.8772311298748221  0.3391940063837211  0.2500656279150917   F   F   F
  0.6230148374477267  0.8411490897985132  0.7502293928571078   F   F   F
  0.2006135856608324  0.7504270937367039  0.6640840246723343   F   F   F
  0.3015220125189728  0.2502107790233197  0.1689150747434098   F   F   F
  0.7993530427181454  0.2496346829121237  0.3357386381645497   F   F   F
  0.7016453148243116  0.7499832708546563  0.8315334864582127   F   F   F
  0.4242719971812221  0.0706384615857303  0.6885218432613485   F   F   F
  0.0755020091582779  0.5695228763252089  0.1902782784957893   F   F   F
  0.4243558624162276  0.4298175168909495  0.6909348031994895   F   F   F
  0.0751517938121466  0.9306571917337578  0.1899204461158561   F   F   F
  0.5772989426345063  0.9330442733084396  0.3086024003347916   F   F   F
  0.9254278816614274  0.4299255357169329  0.8090970275225331   F   F   F
  0.5763418535148972  0.5695745267410430  0.3099784841087683   F   F   F
  0.9251189153947621  0.0704947830603828  0.8094626351571534   F   F   F
  0.3220897745942821  0.0326609420907573  0.8436120520877992   F   F   F
  0.1778519313172211  0.5312782456008804  0.3437828976714883   F   F   F
  0.3221854135733437  0.4663496125070949  0.8454175648555093   F   F   F
  0.1785035517244467  0.9681760938678110  0.3435266466351550   F   F   F
  0.6789581693712492  0.9682494295627535  0.1552106996442504   F   F   F
  0.8224633213286623  0.4671209751508059  0.6552339460285381   F   F   F
  0.6790640875934528  0.5316449711150781  0.1563385541345070   F   F   F
  0.8220529535814975  0.0329472797582611  0.6569276718669244   F   F   F
  0.2759490424028996  0.0510601526365306  0.0620615447760997   F   F   F
  0.2214038731123935  0.5495052895759827  0.5631811003193405   F   F   F
  0.2768250193048019  0.4488323870365178  0.0623568700404746   F   F   F
  0.2221875380469385  0.9506909638068137  0.5626457170895662   F   F   F
  0.7247832856754002  0.9483222547810186  0.9379576196057755   F   F   F
  0.7777512042865951  0.4503979685096269  0.4375096417442421   F   F   F
  0.7245091712626603  0.5517509558877407  0.9371219507367456   F   F   F
  0.7777371171519079  0.0494931365470208  0.4363890811660696   F   F   F
  0.1215730961706782  0.0546322989988184  0.0481672548997452   F   F   F
  0.3770303505879369  0.5524535159239434  0.5497231416161910   F   F   F
  0.1215051304769474  0.4460756013858855  0.0495614061733960   F   F   F
  0.3772700965996307  0.9471363543218061  0.5482601806506011   F   F   F
  0.8796532662358345  0.9459488856487894  0.9506541076927633   F   F   F
  0.6223282769965408  0.4467408910934978  0.4510764556426068   F   F   F
  0.8797811968212343  0.5541373609810023  0.9505269338151408   F   F   F
  0.6222651609510237  0.0542056864920539  0.4501415612115025   F   F   F
  0.0730507395023707  0.0399834872170786  0.8253190685220062   F   F   F
  0.4275200021421526  0.5421734283371435  0.3242245155007879   F   F   F
  0.0725636118474569  0.4603618208552689  0.8257729465163592   F   F   F
  0.4287828116356067  0.9594587140315838  0.3263852826911986   F   F   F
  0.9261392025606483  0.9604576671340368  0.1745489896539141   F   F   F
  0.5715723545689926  0.4626142047188324  0.6722992926168416   F   F   F
  0.9275402244908975  0.5396059754128117  0.1745796112891469   F   F   F
  0.5708896958179110  0.0375746363456102  0.6738274829738629   F   F   F
  0.2013108035107791  0.0734204582972069  0.7144721163002004   F   F   F
  0.2981998420484757  0.5723215207446302  0.2143609780809754   F   F   F
  0.2022646362240650  0.4270081552977629  0.7157957576642175   F   F   F
  0.2976191831899584  0.9291806145189341  0.2135435377195734   F   F   F
  0.7989674862878786  0.9253259675421077  0.2851945019844422   F   F   F
  0.7015021091269560  0.4283526735854295  0.7853196288198347   F   F   F
  0.7983139225559555  0.5731553077398601  0.2851493886637684   F   F   F
  0.7012241319382113  0.0705512293961661  0.7848023257582639   F   F   F
  0.4217362173090535  0.8283944074855114  0.6894315698540794   F   F   F
  0.0758731856951940  0.3283612807873624  0.1882562011572730   F   F   F
  0.4230822479879848  0.6717030819507883  0.6884832496337623   F   F   F
  0.0759199764151361  0.1714711790143753  0.1880362789038870   F   F   F
  0.5774240821676742  0.1716722442963601  0.3154842482719644   F   F   F
  0.9249218950091276  0.6716539906884549  0.8098550067156651   F   F   F
  0.5775592792111155  0.3280892549591741  0.3152420308400323   F   F   F
  0.9250461484069632  0.8282688898624286  0.8107529256039712   F   F   F
  0.3171909010342873  0.8754235638821939  0.8366212616110360   F   F   F
  0.1834992947902947  0.3746783386291099  0.3349070526858924   F   F   F
  0.3168890668260076  0.6234560402212352  0.8389579493128991   F   F   F
  0.1832915280026626  0.1258443558172928  0.3347384382595564   F   F   F
  0.6838061550436905  0.1262610140121723  0.1651847620624878   F   F   F
  0.8179133535781133  0.6245982906852134  0.6646497138484904   F   F   F
  0.6840320334491850  0.3744076373579190  0.1655144136459725   F   F   F
  0.8177724216557962  0.8754374939761078  0.6645145851300143   F   F   F
  0.2709913752871955  0.8272946474912146  0.0397094327259921   F   F   F
  0.2264604629058340  0.3279071994794052  0.5385349316648416   F   F   F
  0.2714664525425903  0.6715899902081333  0.0404039129178955   F   F   F
  0.2261603055333552  0.1728951743833633  0.5393078972662764   F   F   F
  0.7269899108486300  0.1721909442850134  0.9594971277923179   F   F   F
  0.7748183205052683  0.6741135228214716  0.4612282708252593   F   F   F
  0.7262801165832968  0.3280434123809499  0.9590140165390935   F   F   F
  0.7760583232047438  0.8263478983558485  0.4608701109644713   F   F   F
  0.1144410120991850  0.8284878373297317  0.0275083086679544   F   F   F
  0.3820330612561733  0.3289311453791015  0.5262088191151122   F   F   F
  0.1155032547510473  0.6716905516632750  0.0264546494761646   F   F   F
  0.3821446394561505  0.1725404645069020  0.5267403231590109   F   F   F
  0.8827347664960001  0.1711966985283055  0.9736880747288055   F   F   F
  0.6201091882757623  0.6722735530816095  0.4703045870132883   F   F   F
  0.8825349116967587  0.3279166898465391  0.9737567935947382   F   F   F
  0.6215499686069279  0.8291062887056455  0.4724620518428395   F   F   F
  0.0703785340625132  0.8811118616235305  0.8188579167349772   F   F   F
  0.4311608080497535  0.3824219103390760  0.3202305755804247   F   F   F
  0.0708664567486181  0.6194870034724573  0.8173358899820755   F   F   F
  0.4321004776042656  0.1191742208558892  0.3205779414543954   F   F   F
  0.9296854429891184  0.1191310222723132  0.1827410516617931   F   F   F
  0.5705145037415065  0.6218033195054957  0.6780694377625025   F   F   F
  0.9296968660467542  0.3810964111870803  0.1838281428655719   F   F   F
  0.5700575252479325  0.8787047891384603  0.6805774271042537   F   F   F
  0.1967956565149080  0.8268503169066435  0.7041794043511587   F   F   F
  0.3056653353160570  0.3277156781748189  0.2054423325038783   F   F   F
  0.1964967950999252  0.6727841718642580  0.7033693593021724   F   F   F
  0.3055099501996850  0.1724018320768153  0.2048168160746613   F   F   F
  0.8046573792534630  0.1735703594367521  0.2972247308729266   F   F   F
  0.6963358441433982  0.6727329872213872  0.7958072875287883   F   F   F
  0.8047023961352622  0.3269458999325039  0.2973579594250282   F   F   F
  0.6969055105442123  0.8275509430703067  0.7966939534247786   F   F   F
  0.4959725974849647  0.7626363015286515  0.3587814876764668   F   F   F
  0.3857837801616526  0.7675524584096109  0.2749898476189045   F   F   F
  0.3916514084445737  0.7107187577193343  0.4196676542416853   F   F   F
  0.5184255411936363  0.7493599320422319  0.2284783547470823   T   T   T
  0.4446569456738629  0.7449608961683296  0.1571551085093432   T   T   T
  0.4480322827498853  0.6950839936931104  0.1243760379763046   T   T   T
  0.5510616455143520  0.7192141724787149  0.1791265491967593   T   T   T
  0.4450368501859287  0.7883202570613150  0.1017420338756480   T   T   T
 
  0.00000000E+00  0.00000000E+00  0.00000000E+00
  0.00000000E+00  0.00000000E+00  0.00000000E+00
  0.00000000E+00  0.00000000E+00  0.00000000E+00
  0.00000000E+00  0.00000000E+00  0.00000000E+00
  0.00000000E+00  0.00000000E+00  0.00000000E+00
  0.00000000E+00  0.00000000E+00  0.00000000E+00
  0.00000000E+00  0.00000000E+00  0.00000000E+00
  0.00000000E+00  0.00000000E+00  0.00000000E+00
  0.00000000E+00  0.00000000E+00  0.00000000E+00
  0.00000000E+00  0.00000000E+00  0.00000000E+00
  0.00000000E+00  0.00000000E+00  0.00000000E+00
  0.00000000E+00  0.00000000E+00  0.00000000E+00
  0.00000000E+00  0.00000000E+00  0.00000000E+00
  0.00000000E+00  0.00000000E+00  0.00000000E+00
  0.00000000E+00  0.00000000E+00  0.00000000E+00
  0.00000000E+00  0.00000000E+00  0.00000000E+00
  0.00000000E+00  0.00000000E+00  0.00000000E+00
  0.00000000E+00  0.00000000E+00  0.00000000E+00
  0.00000000E+00  0.00000000E+00  0.00000000E+00
  0.00000000E+00  0.00000000E+00  0.00000000E+00
  0.00000000E+00  0.00000000E+00  0.00000000E+00
  0.00000000E+00  0.00000000E+00  0.00000000E+00
  0.00000000E+00  0.00000000E+00  0.00000000E+00
  0.00000000E+00  0.00000000E+00  0.00000000E+00
  0.00000000E+00  0.00000000E+00  0.00000000E+00
  0.00000000E+00  0.00000000E+00  0.00000000E+00
  0.00000000E+00  0.00000000E+00  0.00000000E+00
  0.00000000E+00  0.00000000E+00  0.00000000E+00
  0.00000000E+00  0.00000000E+00  0.00000000E+00
  0.00000000E+00  0.00000000E+00  0.00000000E+00
  0.00000000E+00  0.00000000E+00  0.00000000E+00
  0.00000000E+00  0.00000000E+00  0.00000000E+00
  0.00000000E+00  0.00000000E+00  0.00000000E+00
  0.00000000E+00  0.00000000E+00  0.00000000E+00
  0.00000000E+00  0.00000000E+00  0.00000000E+00
  0.00000000E+00  0.00000000E+00  0.00000000E+00
  0.00000000E+00  0.00000000E+00  0.00000000E+00
  0.00000000E+00  0.00000000E+00  0.00000000E+00
  0.00000000E+00  0.00000000E+00  0.00000000E+00
  0.00000000E+00  0.00000000E+00  0.00000000E+00
  0.00000000E+00  0.00000000E+00  0.00000000E+00
  0.00000000E+00  0.00000000E+00  0.00000000E+00
  0.00000000E+00  0.00000000E+00  0.00000000E+00
  0.00000000E+00  0.00000000E+00  0.00000000E+00
  0.00000000E+00  0.00000000E+00  0.00000000E+00
  0.00000000E+00  0.00000000E+00  0.00000000E+00
  0.00000000E+00  0.00000000E+00  0.00000000E+00
  0.00000000E+00  0.00000000E+00  0.00000000E+00
  0.00000000E+00  0.00000000E+00  0.00000000E+00
  0.00000000E+00  0.00000000E+00  0.00000000E+00
  0.00000000E+00  0.00000000E+00  0.00000000E+00
  0.00000000E+00  0.00000000E+00  0.00000000E+00
  0.00000000E+00  0.00000000E+00  0.00000000E+00
  0.00000000E+00  0.00000000E+00  0.00000000E+00
  0.00000000E+00  0.00000000E+00  0.00000000E+00
  0.00000000E+00  0.00000000E+00  0.00000000E+00
  0.00000000E+00  0.00000000E+00  0.00000000E+00
  0.00000000E+00  0.00000000E+00  0.00000000E+00
  0.00000000E+00  0.00000000E+00  0.00000000E+00
  0.00000000E+00  0.00000000E+00  0.00000000E+00
  0.00000000E+00  0.00000000E+00  0.00000000E+00
  0.00000000E+00  0.00000000E+00  0.00000000E+00
  0.00000000E+00  0.00000000E+00  0.00000000E+00
  0.00000000E+00  0.00000000E+00  0.00000000E+00
  0.00000000E+00  0.00000000E+00  0.00000000E+00
  0.00000000E+00  0.00000000E+00  0.00000000E+00
  0.00000000E+00  0.00000000E+00  0.00000000E+00
  0.00000000E+00  0.00000000E+00  0.00000000E+00
  0.00000000E+00  0.00000000E+00  0.00000000E+00
  0.00000000E+00  0.00000000E+00  0.00000000E+00
  0.00000000E+00  0.00000000E+00  0.00000000E+00
  0.00000000E+00  0.00000000E+00  0.00000000E+00
  0.00000000E+00  0.00000000E+00  0.00000000E+00
  0.00000000E+00  0.00000000E+00  0.00000000E+00
  0.00000000E+00  0.00000000E+00  0.00000000E+00
  0.00000000E+00  0.00000000E+00  0.00000000E+00
  0.00000000E+00  0.00000000E+00  0.00000000E+00
  0.00000000E+00  0.00000000E+00  0.00000000E+00
  0.00000000E+00  0.00000000E+00  0.00000000E+00
  0.00000000E+00  0.00000000E+00  0.00000000E+00
  0.00000000E+00  0.00000000E+00  0.00000000E+00
  0.00000000E+00  0.00000000E+00  0.00000000E+00
  0.00000000E+00  0.00000000E+00  0.00000000E+00
  0.00000000E+00  0.00000000E+00  0.00000000E+00
  0.00000000E+00  0.00000000E+00  0.00000000E+00
  0.00000000E+00  0.00000000E+00  0.00000000E+00
  0.00000000E+00  0.00000000E+00  0.00000000E+00
  0.00000000E+00  0.00000000E+00  0.00000000E+00
  0.00000000E+00  0.00000000E+00  0.00000000E+00
  0.00000000E+00  0.00000000E+00  0.00000000E+00
  0.00000000E+00  0.00000000E+00  0.00000000E+00
  0.00000000E+00  0.00000000E+00  0.00000000E+00
  0.00000000E+00  0.00000000E+00  0.00000000E+00
  0.00000000E+00  0.00000000E+00  0.00000000E+00
  0.00000000E+00  0.00000000E+00  0.00000000E+00
  0.00000000E+00  0.00000000E+00  0.00000000E+00
  0.00000000E+00  0.00000000E+00  0.00000000E+00
  0.00000000E+00  0.00000000E+00  0.00000000E+00
  0.00000000E+00  0.00000000E+00  0.00000000E+00
  0.00000000E+00  0.00000000E+00  0.00000000E+00
  0.00000000E+00  0.00000000E+00  0.00000000E+00
  0.00000000E+00  0.00000000E+00  0.00000000E+00
  0.00000000E+00  0.00000000E+00  0.00000000E+00
  0.00000000E+00  0.00000000E+00  0.00000000E+00
  0.00000000E+00  0.00000000E+00  0.00000000E+00
  0.00000000E+00  0.00000000E+00  0.00000000E+00
  0.00000000E+00  0.00000000E+00  0.00000000E+00
  0.00000000E+00  0.00000000E+00  0.00000000E+00
  0.00000000E+00  0.00000000E+00  0.00000000E+00
  0.00000000E+00  0.00000000E+00  0.00000000E+00
  0.00000000E+00  0.00000000E+00  0.00000000E+00
  0.00000000E+00  0.00000000E+00  0.00000000E+00
  0.00000000E+00  0.00000000E+00  0.00000000E+00
  0.00000000E+00  0.00000000E+00  0.00000000E+00
  0.00000000E+00  0.00000000E+00  0.00000000E+00
  0.00000000E+00  0.00000000E+00  0.00000000E+00
  0.00000000E+00  0.00000000E+00  0.00000000E+00
  0.00000000E+00  0.00000000E+00  0.00000000E+00
  0.00000000E+00  0.00000000E+00  0.00000000E+00
  0.00000000E+00  0.00000000E+00  0.00000000E+00
  0.00000000E+00  0.00000000E+00  0.00000000E+00
  0.00000000E+00  0.00000000E+00  0.00000000E+00
  0.00000000E+00  0.00000000E+00  0.00000000E+00
  0.00000000E+00  0.00000000E+00  0.00000000E+00
  0.00000000E+00  0.00000000E+00  0.00000000E+00
  0.00000000E+00  0.00000000E+00  0.00000000E+00
  0.00000000E+00  0.00000000E+00  0.00000000E+00
  0.00000000E+00  0.00000000E+00  0.00000000E+00
  0.00000000E+00  0.00000000E+00  0.00000000E+00
  0.00000000E+00  0.00000000E+00  0.00000000E+00
  0.00000000E+00  0.00000000E+00  0.00000000E+00
  0.00000000E+00  0.00000000E+00  0.00000000E+00
  0.00000000E+00  0.00000000E+00  0.00000000E+00
  0.00000000E+00  0.00000000E+00  0.00000000E+00
  0.00000000E+00  0.00000000E+00  0.00000000E+00
  0.00000000E+00  0.00000000E+00  0.00000000E+00
  0.00000000E+00  0.00000000E+00  0.00000000E+00
  0.00000000E+00  0.00000000E+00  0.00000000E+00
  0.00000000E+00  0.00000000E+00  0.00000000E+00
  0.00000000E+00  0.00000000E+00  0.00000000E+00
  0.00000000E+00  0.00000000E+00  0.00000000E+00
  0.00000000E+00  0.00000000E+00  0.00000000E+00
  0.00000000E+00  0.00000000E+00  0.00000000E+00
  0.00000000E+00  0.00000000E+00  0.00000000E+00
  0.00000000E+00  0.00000000E+00  0.00000000E+00
  0.00000000E+00  0.00000000E+00  0.00000000E+00
  0.00000000E+00  0.00000000E+00  0.00000000E+00
  0.00000000E+00  0.00000000E+00  0.00000000E+00
  0.00000000E+00  0.00000000E+00  0.00000000E+00
  0.00000000E+00  0.00000000E+00  0.00000000E+00
  0.00000000E+00  0.00000000E+00  0.00000000E+00
  0.00000000E+00  0.00000000E+00  0.00000000E+00
  0.00000000E+00  0.00000000E+00  0.00000000E+00
  0.00000000E+00  0.00000000E+00  0.00000000E+00
  0.00000000E+00  0.00000000E+00  0.00000000E+00
  0.00000000E+00  0.00000000E+00  0.00000000E+00
  0.00000000E+00  0.00000000E+00  0.00000000E+00
  0.00000000E+00  0.00000000E+00  0.00000000E+00
  0.00000000E+00  0.00000000E+00  0.00000000E+00
  0.00000000E+00  0.00000000E+00  0.00000000E+00
  0.00000000E+00  0.00000000E+00  0.00000000E+00
  0.00000000E+00  0.00000000E+00  0.00000000E+00
  0.00000000E+00  0.00000000E+00  0.00000000E+00
  0.00000000E+00  0.00000000E+00  0.00000000E+00