O  Si Ru C  H                           
   1.00000000000000     
    20.3096463179999986    0.0000000000000000    0.0000000000000000
     0.0000000000000000   19.8625212309999988    0.0000000000000000
     0.0000000000000000    0.0000000000000000   13.3711533340000006
   O    Si   Ru   C    H 
   192    96     3     2     3
Selective dynamics
Direct
  0.5029314563172491  0.0736054593974842  0.7056795898082271   F   F   F
  0.9970710313183915  0.5700942930813397  0.2101105214952739   F   F   F
  0.5029157002575460  0.4264030684473994  0.7056182637595683   F   F   F
  0.9970941730310869  0.9298955447394661  0.2100462039320448   F   F   F
  0.4981021858957518  0.9268997184032229  0.2928781318302116   T   T   T
  0.0035140936913649  0.4285785223838587  0.7894651819718632   F   F   F
  0.4975407020800465  0.5744187173949901  0.2932175825462756   T   T   T
  0.0035155708219676  0.0713937562864260  0.7894053516804860   F   F   F
  0.3889540899094257  0.0656442344270474  0.7983425014547052   F   F   F
  0.1126060968365081  0.5674727729130566  0.2979630777151598   F   F   F
  0.3889565517937541  0.4344075910430405  0.7983866262945938   F   F   F
  0.1128330193205890  0.9323896811740928  0.2977634406950748   T   T   T
  0.6109867759028726  0.9356276316705100  0.1977784049416212   T   T   T
  0.8876284558447836  0.4318495069303054  0.7019648765924487   F   F   F
  0.6109709636368814  0.5646018563742417  0.1986249487419268   T   T   T
  0.8876422423970283  0.0681313305728750  0.7019663723497302   F   F   F
  0.4000704824090775  0.1397118708006175  0.6347679805913131   F   F   F
  0.0965959706674582  0.6386495376126717  0.1331777413300586   F   F   F
  0.4000010572709982  0.3603107539454911  0.6348397769409644   F   F   F
  0.0964171884186172  0.8612902141697526  0.1333919429712996   T   T   T
  0.6060297107459894  0.8644534127151601  0.3624844442095011   T   T   T
  0.9036755102787737  0.3610246613007106  0.8673043910514195   F   F   F
  0.6049525766650653  0.6356051866987967  0.3641309607321883   T   T   T
  0.9036991443683320  0.1389823561618897  0.8673036431727752   F   F   F
  0.4050656457128383  0.0057646256821258  0.6215133274157125   F   F   F
  0.0958455883239466  0.5043191588571432  0.1236976316616065   F   F   F
  0.4050587524367160  0.4942564886817138  0.6215305286244828   F   F   F
  0.0960462006921503  0.9956898039530093  0.1237313845569965   T   T   T
  0.5943748356574033  0.9975452413495095  0.3730788628639974   T   T   T
  0.9056829307607259  0.4953938065346293  0.8755534924748147   F   F   F
  0.5940467800912472  0.5027443336052926  0.3733612109065945   F   F   F
  0.9056597890480305  0.0046263009076881  0.8755804161059331   F   F   F
  0.3235211434566736  0.0394013424025204  0.9647679357021417   F   F   F
  0.1756180262400164  0.5374342902319711  0.4652874620905152   F   F   F
  0.3235334528783227  0.4606791803307928  0.9647993466051119   F   F   F
  0.1756278868888254  0.9623191922051499  0.4650285803818111   T   T   T
  0.6781219078347605  0.9625492349766588  0.0346643573383415   T   T   T
  0.8237834247843026  0.4615869200779414  0.5352096278638072   F   F   F
  0.6780713846205515  0.5378053408108130  0.0349162101681131   F   F   F
  0.8238494032843278  0.0384170766201137  0.5351946702909629   F   F   F
  0.3185723485507210  0.9541846707719419  0.8087967674339823   T   T   T
  0.1786077385692835  0.4538074444412388  0.3065158178672931   F   F   F
  0.3183324760446453  0.5458118772494913  0.8089309672708893   F   F   F
  0.1786239870058566  0.0462267599023107  0.3066257560276995   F   F   F
  0.6820015367635435  0.0465701201394495  0.1921120740922291   F   F   F
  0.8214145996828393  0.5454916762072344  0.6932715352555832   F   F   F
  0.6819586999762137  0.4534454561560466  0.1921741480195323   F   F   F
  0.8213240023395301  0.9545339073274093  0.6932490988963167   F   F   F
  0.2577302390224716  0.0712150277172441  0.8008808015663149   F   F   F
  0.2442056312720879  0.5683367115742399  0.3043537007127100   F   F   F
  0.2577194067314252  0.4288524050363520  0.8009368924644775   F   F   F
  0.2445640883713461  0.9318464860012727  0.3038667713082200   T   T   T
  0.7425344031225430  0.9295112082727583  0.1993877941209694   T   T   T
  0.7561594012786514  0.4303496973314296  0.6971029175395458   F   F   F
  0.7426131289461679  0.5705066274423558  0.1994195963051126   F   F   F
  0.7561904210211949  0.0697459292246307  0.6970408436122426   F   F   F
  0.2918027181373191  0.1258077950396341  0.1067963222266641   F   F   F
  0.2087014984042583  0.6246688670382371  0.6064282131303264   T   T   T
  0.2918263522268774  0.3742767553797464  0.1068322204014862   F   F   F
  0.2087123466903589  0.8754508110899420  0.6064581089404308   T   T   T
  0.7092132366300348  0.8736096388870394  0.8950349832253295   F   F   F
  0.7912530700132123  0.3754795231312400  0.3929803113272712   F   F   F
  0.7092506572718378  0.6265639621105379  0.8951516522935137   F   F   F
  0.7912742422184422  0.1245214528022700  0.3929765719340637   F   F   F
  0.1999473519339929  0.0448986304220114  0.0271412638038626   F   F   F
  0.2989751719417413  0.5415385023333457  0.5292669841729278   F   F   F
  0.1999803411840020  0.4552221691719609  0.0272601765079727   F   F   F
  0.2987832961964677  0.9589468848174136  0.5285161343843483   T   T   T
  0.8012655535796895  0.9555448565300040  0.9711518277919140   F   F   F
  0.7008221500827005  0.4591808811141931  0.4690380734811157   F   F   F
  0.8012936190610418  0.5445260384728883  0.9709887902479153   F   F   F
  0.7008802505528706  0.0408492955432891  0.4691435243696702   F   F   F
  0.2941784764334357  0.9955134459102946  0.1458700696593957   T   T   T
  0.2040695310546496  0.4948556069840464  0.6475118326543026   F   F   F
  0.2932271346829673  0.5042242883033633  0.1462865862404500   T   T   T
  0.2040444198344886  0.0052440472580813  0.6474579853920659   F   F   F
  0.7071122645435750  0.0028395186766090  0.8521276897653749   F   F   F
  0.7971300802836581  0.5056336948969715  0.3532313093732995   F   F   F
  0.7069773532823405  0.4974162084005798  0.8519758704010059   F   F   F
  0.7971276183993297  0.9943636948352150  0.3532313093732995   F   F   F
  0.1086700361711337  0.1280743753733375  0.0975330973644475   F   F   F
  0.3878934917009122  0.6257057499503189  0.6041108395942617   T   T   T
  0.1087478317159309  0.3719945677625347  0.0976849167288165   F   F   F
  0.3866913232286061  0.8751163883804862  0.6055761480899209   T   T   T
  0.8929840390143227  0.8724270095658753  0.9012199395962739   F   F   F
  0.6104020624432422  0.3721365436963637  0.4053240483166860   F   F   F
  0.8930889152867394  0.6276141812522766  0.9010142729696682   F   F   F
  0.6104419449693737  0.1278498318751531  0.4053218046807601   F   F   F
  0.0807734400842861  0.0483030320693913  0.9452475552622346   F   F   F
  0.4172140601232499  0.5503571209751001  0.4450797811784355   F   F   F
  0.0808187387559443  0.4516974404033576  0.9453133685827524   F   F   F
  0.4171357136147760  0.9497361868688464  0.4456991328639147   T   T   T
  0.9199525047090944  0.9518187434580909  0.0541404306657114   F   F   F
  0.5830815472894031  0.4549095200410846  0.5549124906924021   F   F   F
  0.9199209925896881  0.5482576896131377  0.0541150027918746   F   F   F
  0.5831229069461301  0.0451463331150777  0.5549970009789718   F   F   F
  0.1303114765545885  0.0807153322256937  0.7670228396769048   F   F   F
  0.3707460640888179  0.5777916436294694  0.2617714479418995   T   T   T
  0.1302883348418931  0.4194517857580422  0.7670288227060453   F   F   F
  0.3714799713885293  0.9205406066035615  0.2634593974225005   T   T   T
  0.8701594170223004  0.9189850466471228  0.2322036044643241   F   F   F
  0.6288755500719958  0.4252149010578918  0.7357353366807189   F   F   F
  0.8701510466155824  0.5810219088394675  0.2322073438575387   F   F   F
  0.6288937680160345  0.0748394417159872  0.7358026457585183   F   F   F
  0.0772656833281555  0.9606457228595779  0.7944979211826890   T   T   T
  0.4275200003017616  0.4615607401185144  0.2972660548206392   F   F   F
  0.0770269445122480  0.5394566920979216  0.7945462694669274   F   F   F
  0.4274623922084615  0.0385278379869334  0.2972017372574101   F   F   F
  0.9218028569708565  0.0394959930250778  0.2053046533405336   F   F   F
  0.5682708511654937  0.5421300687243047  0.7043670627911780   F   F   F
  0.9217619896909923  0.4605085071337385  0.2052321091122451   F   F   F
  0.5677571669843147  0.9578893462768122  0.7046048330854486   T   T   T
  0.2140485329942550  0.1396590074210025  0.6476180314214943   F   F   F
  0.2819850981036634  0.6378194555109915  0.1491017610897660   T   T   T
  0.2140559186472402  0.3604587714084246  0.6476382241448349   F   F   F
  0.2850841130745182  0.8609554673655332  0.1499779182535807   T   T   T
  0.7863051748885681  0.8601652227983436  0.3518896150892061   F   F   F
  0.7123590324257663  0.3628371200304628  0.8520379443283090   F   F   F
  0.7862731703922918  0.6398331738553509  0.3518806405454953   F   F   F
  0.7123388449742691  0.1374035032239789  0.8518831334493768   F   F   F
  0.4987965472146640  0.8434591817816759  0.7044313929649011   T   T   T
  0.0028287050941458  0.3558959065562775  0.2142597522021674   F   F   F
  0.4988550829391015  0.6556005891110971  0.7071231272131111   T   T   T
  0.0028227965717562  0.1441423254733465  0.2142597522021674   F   F   F
  0.5033529309143958  0.1470155760207561  0.2906106827837505   F   F   F
  0.9988514660651973  0.6462331670144081  0.7840258606071870   F   F   F
  0.5033366824778227  0.3529823791482016  0.2906017082400467   F   F   F
  0.9988499889346016  0.8540693199372811  0.7843302472145623   F   F   F
  0.3848099561487492  0.8386902671303020  0.7965076786586986   T   T   T
  0.1198336968499021  0.3349000825543769  0.2890767836886141   F   F   F
  0.3847010338903980  0.6605855560840418  0.7973860133034687   T   T   T
  0.1198775183909646  0.1651019003006482  0.2889451570475856   F   F   F
  0.6200014418192978  0.1635879938005473  0.2129113270102891   F   F   F
  0.8813378490070463  0.6641160931479533  0.7095229381504566   F   F   F
  0.6199940561663126  0.3363983817709766  0.2129217973112816   F   F   F
  0.8813885638242240  0.8360388798015634  0.7096224060098706   F   F   F
  0.4106154644439712  0.7494850664910306  0.6532731323483040   T   T   T
  0.0728914712162165  0.2500221367793571  0.1527385072166396   F   F   F
  0.5775767739295219  0.2499909222123478  0.3505972807954905   F   F   F
  0.9262283402408613  0.7500805072393106  0.8460048073217337   F   F   F
  0.3152028629070416  0.8671095905663979  0.9578524890181195   T   T   T
  0.1828628594437163  0.3674513378799560  0.4556847003247455   F   F   F
  0.3149037474902579  0.6329124335036210  0.9580179728561409   T   T   T
  0.1828751688653583  0.1327102420354365  0.4556592724509088   F   F   F
  0.6825392123010161  0.1351273571358647  0.0447134203808517   F   F   F
  0.8170782366255480  0.6318095197508953  0.5440009413027980   F   F   F
  0.6825328114017637  0.3649441033037988  0.0447635282498808   F   F   F
  0.8171269819352673  0.8681637038648944  0.5440099158465017   F   F   F
  0.2539810469404362  0.8396040567939702  0.7867154743475467   T   T   T
  0.2501717617552472  0.3425290234243548  0.2900280853214809   F   F   F
  0.2540717073453769  0.6606625811858059  0.7863548951656365   T   T   T
  0.2502264155873490  0.1574855459496192  0.2900385556224734   F   F   F
  0.7505812637657598  0.1593211638742531  0.2099422488007789   F   F   F
  0.7509269123255677  0.6570062203197438  0.7107030906478400   F   F   F
  0.7505783095045615  0.3407014608718555  0.2099504754658454   F   F   F
  0.7509347903554158  0.8429851278833382  0.7106799064099363   F   F   F
  0.2959066072542947  0.7498589064054237  0.0471124624254443   T   T   T
  0.2022305034608038  0.2500760070804944  0.5427848906305854   F   F   F
  0.7051782082146261  0.2500588894147100  0.9513539843757499   F   F   F
  0.8014994325909583  0.7499959258319180  0.4572253303276668   F   F   F
  0.1950434133706830  0.8324334937885202  0.0109709233710477   T   T   T
  0.3032834695176803  0.3324160071731015  0.5082366367544324   F   F   F
  0.1946679165610410  0.6686406268439070  0.0087238777473758   T   T   T
  0.3032844542714130  0.1677168754790728  0.5083106767400096   F   F   F
  0.8035693849348675  0.1647514916128898  0.9887740922379251   F   F   F
  0.6978942045423127  0.6722138469943492  0.4912898567925795   T   T   T
  0.8035846486177078  0.3352872438774810  0.9888346704079467   F   F   F
  0.6978596263296236  0.8278344032861851  0.4907310644522045   T   T   T
  0.0914146889084222  0.7500789968570345  0.0256574725777483   F   F   F
  0.4062872327169416  0.2500392544451415  0.5245284250959870   F   F   F
  0.9046952227678844  0.2500014948882665  0.9753040500133707   F   F   F
  0.5928966610751417  0.7502094303398208  0.4633911718445611   T   T   T
  0.0801331661100186  0.8690505188551819  0.9374753569370916   T   T   T
  0.4189674141424433  0.3699167852131779  0.4392642768567327   F   F   F
  0.0795401853470826  0.6310797400686312  0.9374824210237594   T   T   T
  0.4189083289185405  0.1301843794112258  0.4391767750555928   F   F   F
  0.9190470236528512  0.1316630436582500  0.0636676566886223   F   F   F
  0.5835416250887181  0.6325339849617706  0.5612047913006714   T   T   T
  0.9190745967573406  0.3683162834626543  0.0636661609313336   F   F   F
  0.5846468074406352  0.8690358815084599  0.5608358203248094   T   T   T
  0.1257734576751522  0.8403268527914695  0.7539658513981898   T   T   T
  0.3775087896634020  0.3422596719186828  0.2525459035320026   F   F   F
  0.1257391972620960  0.6597675063016596  0.7539820605230072   T   T   T
  0.3775501493201361  0.1578651553613568  0.2523910926530704   F   F   F
  0.8773988340804735  0.1607968073567250  0.2499889064543410   F   F   F
  0.6239909132072771  0.6588612121861057  0.7488365773857159   T   T   T
  0.8774008035879390  0.3392076928020913  0.2499986288766891   F   F   F
  0.6239522025360457  0.8412130012831783  0.7486837782829988   T   T   T
  0.2007245678013844  0.7500620188978112  0.6641603627262633   T   T   T
  0.3013060840245387  0.2500437855919628  0.1692972882334587   F   F   F
  0.7993236192208926  0.2500030052705426  0.3357900315586946   F   F   F
  0.7013376686612176  0.7500417407609206  0.8317577191879337   F   F   F
  0.4240585909350330  0.0707835618474135  0.6891477324225264   F   F   F
  0.0756064372543577  0.5696195295862978  0.1901227169039927   F   F   F
  0.4240320025842834  0.4292400698202172  0.6891768996895706   F   F   F
  0.0756017902001006  0.9303705398043515  0.1900489028004570   T   T   T
  0.5767535627302597  0.9312369097766382  0.3073184618215541   T   T   T
  0.9249944438151090  0.4295864508219012  0.8095950835051582   F   F   F
  0.5760511790377484  0.5692297484677512  0.3079016141291299   T   T   T
  0.9249993675837658  0.0704160354938779  0.8095898483546620   F   F   F
  0.3221296864338612  0.0326831620442434  0.8439690816576828   F   F   F
  0.1778243669757629  0.5317683428584701  0.3443427717108278   F   F   F
  0.3221301788107311  0.4673752084157030  0.8440034840752233   F   F   F
  0.1779396143672317  0.9682521281663281  0.3441627407011776   T   T   T
  0.6786006821910190  0.9685548569621518  0.1554144614550367   T   T   T
  0.8221329775300745  0.4673631253575081  0.6561072018890357   F   F   F
  0.6785278179751728  0.5316223392385737  0.1557846169262973   F   F   F
  0.8221388860524641  0.0326469128696516  0.6560937400734801   F   F   F
  0.2766675456588317  0.0515634439399122  0.0616506279906233   F   F   F
  0.2222308517504743  0.5498159006599650  0.5623823025706400   F   F   F
  0.2767103824461614  0.4485397345275217  0.0617179370684227   F   F   F
  0.2221836926305946  0.9502805543665307  0.5623372851609347   T   T   T
  0.7243523481234462  0.9483896722335459  0.9381576657342379   F   F   F
  0.7777909941247856  0.4502877502802178  0.4371709645372306   F   F   F
  0.7243666270525537  0.5517421415210890  0.9381284984671936   F   F   F
  0.7778353080427109  0.0497142325748072  0.4371836784741490   F   F   F
  0.1216865109959926  0.0542438690169149  0.0487594438351238   F   F   F
  0.3770730361371548  0.5531221274594884  0.5491254057591064   F   F   F
  0.1217229468840628  0.4458160118253147  0.0488641468450339   F   F   F
  0.3766631684640946  0.9470046375244604  0.5495086712722950   T   T   T
  0.8796263470214498  0.9461326576542533  0.9501207324947742   F   F   F
  0.6225361979245463  0.4470983263766115  0.4505669667762078   F   F   F
  0.8796627829095200  0.5539407546524302  0.9500085506984419   F   F   F
  0.6225972526559076  0.0529152360758545  0.4506679303929104   F   F   F
  0.0731292892424094  0.0397280884346358  0.8250492477674527   F   F   F
  0.4279827883474441  0.5413488153766689  0.3253937620827135   T   T   T
  0.0730726659028349  0.4603589792885359  0.8251315144180964   F   F   F
  0.4287305509326390  0.9591599082516713  0.3266265298890720   T   T   T
  0.9271318517896390  0.9605734225835434  0.1743536957333376   F   F   F
  0.5711364845245726  0.4628214058572055  0.6742238141175463   F   F   F
  0.9271185576142642  0.5394335329030397  0.1743387381604933   F   F   F
  0.5711645500059248  0.0372122950255900  0.6743008456176938   F   F   F
  0.2016608234270478  0.0731780212137139  0.7145554135337804   F   F   F
  0.2979625131042529  0.5715523881355794  0.2147783325188780   T   T   T
  0.2016504835128643  0.4269281780182652  0.7146017820096020   F   F   F
  0.2985260621373504  0.9285854811531614  0.2147464188697242   T   T   T
  0.7989760011536191  0.9268027853014544  0.2852087553511851   F   F   F
  0.7012303305044654  0.4296025615661705  0.7852344324929703   F   F   F
  0.7989696002543667  0.5731966182737622  0.2852095032298294   F   F   F
  0.7012844919597114  0.0705640529568043  0.7851992821967855   F   F   F
  0.4214425491888462  0.8281360183228339  0.6893158098536117   T   T   T
  0.0758787216611552  0.3283072639249056  0.1878663670404990   F   F   F
  0.4217543616310981  0.6713847692695231  0.6911764523012331   T   T   T
  0.0758654274857733  0.1717214023503004  0.1878042931131958   F   F   F
  0.5775216277205502  0.1718074941399692  0.3153714488695130   F   F   F
  0.9251529891659018  0.6718306223468389  0.8107625220656232   F   F   F
  0.5775024250227787  0.3281718329809351  0.3153677094763054   F   F   F
  0.9251623443263526  0.8283757036000239  0.8109225680950516   F   F   F
  0.3179625399607408  0.8748070895662881  0.8371289784703592   T   T   T
  0.1828530119063956  0.3745224442297825  0.3347542196392581   F   F   F
  0.3174976906731669  0.6250694076315734  0.8376207580307499   T   T   T
  0.1828800926340222  0.1255218293289388  0.3347415057023397   F   F   F
  0.6836652781931534  0.1262604062613093  0.1653911180852816   F   F   F
  0.8178488064205567  0.6248214844261852  0.6649628328912556   F   F   F
  0.6836505068871759  0.3737581907987320  0.1654352429251702   F   F   F
  0.8178522530586179  0.8751889952857113  0.6649620850126112   F   F   F
  0.2721787522761874  0.8273531952232630  0.0414672126582253   T   T   T
  0.2261442630800232  0.3275968807949994  0.5389834234923114   F   F   F
  0.2716396915594353  0.6723690258945030  0.0416192899749818   T   T   T
  0.2261427859494276  0.1725586575912956  0.5389909022787336   F   F   F
  0.7263888188404835  0.1718940893903849  0.9589531792590833   F   F   F
  0.7753813017434581  0.6731169645842030  0.4604838375717009   F   F   F
  0.7264085139151177  0.3282166409884226  0.9590040350067568   F   F   F
  0.7754069053404749  0.8268809286087375  0.4604972993872636   F   F   F
  0.1159285739352805  0.8278554749780700  0.0269727204746406   T   T   T
  0.3820135456088067  0.3279316821992424  0.5268969567558202   F   F   F
  0.1158085159718141  0.6722278528851078  0.0267792905410431   F   F   F
  0.3820224083923875  0.1721422955442122  0.5268924694839612   F   F   F
  0.8825018279178494  0.1716010752290771  0.9735839291363249   F   F   F
  0.6194626802730328  0.6714337941491100  0.4700282264692603   T   T   T
  0.8825047821790406  0.3284049353120082  0.9735891642868211   F   F   F
  0.6192355938468669  0.8289652235326161  0.4697107018852128   T   T   T
  0.0708586230198267  0.8808923855574479  0.8178141980353981   T   T   T
  0.4313797425529344  0.3817259607590273  0.3201481497572090   F   F   F
  0.0707098996097435  0.6192357239787377  0.8178092801552211   T   T   T
  0.4313442914185970  0.1183696657970330  0.3200793449221209   F   F   F
  0.9298822689621176  0.1192230317822904  0.1828383789290271   F   F   F
  0.5693348633415470  0.6220223331239774  0.6800296800901422   T   T   T
  0.9298778375703307  0.3807774406904514  0.1828331437785309   F   F   F
  0.5693055528558479  0.8780457881928381  0.6795684124202273   T   T   T
  0.1971537179235313  0.8273668875967890  0.7028901955072270   T   T   T
  0.3054105375780267  0.3279739729029387  0.2048058182861894   F   F   F
  0.1970711411722736  0.6727547970917007  0.7028911053210856   T   T   T
  0.3054100452011639  0.1721100740556807  0.2047646849608711   F   F   F
  0.8047220391777614  0.1727424207680670  0.2971897711991360   F   F   F
  0.6963050847156538  0.6722424532471010  0.7964585951550234   F   F   F
  0.8047215468008915  0.3272635897730254  0.2971897711991360   F   F   F
  0.6962917905402790  0.8278390144317100  0.7964496206113125   F   F   F
  0.4922834736745068  0.7634545294844822  0.3806304844610431   T   T   T
  0.3805351944081760  0.7792029220190525  0.3003983915867862   T   T   T
  0.3971313947050001  0.7431134316042149  0.4685799934905526   T   T   T
  0.4663302799522348  0.7631444984414314  0.2390294870972505   T   T   T
  0.4949648671680290  0.7535749407780754  0.1494793032296005   T   T   T
  0.4664909094812013  0.7501399787815729  0.0800972774500960   T   T   T
  0.3652993440934622  0.7023440141225780  0.2890978846768332   T   T   T
  0.5485488188049762  0.7490846801717969  0.1427075406665958   T   T   T
 
  0.00000000E+00  0.00000000E+00  0.00000000E+00
  0.00000000E+00  0.00000000E+00  0.00000000E+00
  0.00000000E+00  0.00000000E+00  0.00000000E+00
  0.00000000E+00  0.00000000E+00  0.00000000E+00
  0.00000000E+00  0.00000000E+00  0.00000000E+00
  0.00000000E+00  0.00000000E+00  0.00000000E+00
  0.00000000E+00  0.00000000E+00  0.00000000E+00
  0.00000000E+00  0.00000000E+00  0.00000000E+00
  0.00000000E+00  0.00000000E+00  0.00000000E+00
  0.00000000E+00  0.00000000E+00  0.00000000E+00
  0.00000000E+00  0.00000000E+00  0.00000000E+00
  0.00000000E+00  0.00000000E+00  0.00000000E+00
  0.00000000E+00  0.00000000E+00  0.00000000E+00
  0.00000000E+00  0.00000000E+00  0.00000000E+00
  0.00000000E+00  0.00000000E+00  0.00000000E+00
  0.00000000E+00  0.00000000E+00  0.00000000E+00
  0.00000000E+00  0.00000000E+00  0.00000000E+00
  0.00000000E+00  0.00000000E+00  0.00000000E+00
  0.00000000E+00  0.00000000E+00  0.00000000E+00
  0.00000000E+00  0.00000000E+00  0.00000000E+00
  0.00000000E+00  0.00000000E+00  0.00000000E+00
  0.00000000E+00  0.00000000E+00  0.00000000E+00
  0.00000000E+00  0.00000000E+00  0.00000000E+00
  0.00000000E+00  0.00000000E+00  0.00000000E+00
  0.00000000E+00  0.00000000E+00  0.00000000E+00
  0.00000000E+00  0.00000000E+00  0.00000000E+00
  0.00000000E+00  0.00000000E+00  0.00000000E+00
  0.00000000E+00  0.00000000E+00  0.00000000E+00
  0.00000000E+00  0.00000000E+00  0.00000000E+00
  0.00000000E+00  0.00000000E+00  0.00000000E+00
  0.00000000E+00  0.00000000E+00  0.00000000E+00
  0.00000000E+00  0.00000000E+00  0.00000000E+00
  0.00000000E+00  0.00000000E+00  0.00000000E+00
  0.00000000E+00  0.00000000E+00  0.00000000E+00
  0.00000000E+00  0.00000000E+00  0.00000000E+00
  0.00000000E+00  0.00000000E+00  0.00000000E+00
  0.00000000E+00  0.00000000E+00  0.00000000E+00
  0.00000000E+00  0.00000000E+00  0.00000000E+00
  0.00000000E+00  0.00000000E+00  0.00000000E+00
  0.00000000E+00  0.00000000E+00  0.00000000E+00
  0.00000000E+00  0.00000000E+00  0.00000000E+00
  0.00000000E+00  0.00000000E+00  0.00000000E+00
  0.00000000E+00  0.00000000E+00  0.00000000E+00
  0.00000000E+00  0.00000000E+00  0.00000000E+00
  0.00000000E+00  0.00000000E+00  0.00000000E+00
  0.00000000E+00  0.00000000E+00  0.00000000E+00
  0.00000000E+00  0.00000000E+00  0.00000000E+00
  0.00000000E+00  0.00000000E+00  0.00000000E+00
  0.00000000E+00  0.00000000E+00  0.00000000E+00
  0.00000000E+00  0.00000000E+00  0.00000000E+00
  0.00000000E+00  0.00000000E+00  0.00000000E+00
  0.00000000E+00  0.00000000E+00  0.00000000E+00
  0.00000000E+00  0.00000000E+00  0.00000000E+00
  0.00000000E+00  0.00000000E+00  0.00000000E+00
  0.00000000E+00  0.00000000E+00  0.00000000E+00
  0.00000000E+00  0.00000000E+00  0.00000000E+00
  0.00000000E+00  0.00000000E+00  0.00000000E+00
  0.00000000E+00  0.00000000E+00  0.00000000E+00
  0.00000000E+00  0.00000000E+00  0.00000000E+00
  0.00000000E+00  0.00000000E+00  0.00000000E+00
  0.00000000E+00  0.00000000E+00  0.00000000E+00
  0.00000000E+00  0.00000000E+00  0.00000000E+00
  0.00000000E+00  0.00000000E+00  0.00000000E+00
  0.00000000E+00  0.00000000E+00  0.00000000E+00
  0.00000000E+00  0.00000000E+00  0.00000000E+00
  0.00000000E+00  0.00000000E+00  0.00000000E+00
  0.00000000E+00  0.00000000E+00  0.00000000E+00
  0.00000000E+00  0.00000000E+00  0.00000000E+00
  0.00000000E+00  0.00000000E+00  0.00000000E+00
  0.00000000E+00  0.00000000E+00  0.00000000E+00
  0.00000000E+00  0.00000000E+00  0.00000000E+00
  0.00000000E+00  0.00000000E+00  0.00000000E+00
  0.00000000E+00  0.00000000E+00  0.00000000E+00
  0.00000000E+00  0.00000000E+00  0.00000000E+00
  0.00000000E+00  0.00000000E+00  0.00000000E+00
  0.00000000E+00  0.00000000E+00  0.00000000E+00
  0.00000000E+00  0.00000000E+00  0.00000000E+00
  0.00000000E+00  0.00000000E+00  0.00000000E+00
  0.00000000E+00  0.00000000E+00  0.00000000E+00
  0.00000000E+00  0.00000000E+00  0.00000000E+00
  0.00000000E+00  0.00000000E+00  0.00000000E+00
  0.00000000E+00  0.00000000E+00  0.00000000E+00
  0.00000000E+00  0.00000000E+00  0.00000000E+00
  0.00000000E+00  0.00000000E+00  0.00000000E+00
  0.00000000E+00  0.00000000E+00  0.00000000E+00
  0.00000000E+00  0.00000000E+00  0.00000000E+00
  0.00000000E+00  0.00000000E+00  0.00000000E+00
  0.00000000E+00  0.00000000E+00  0.00000000E+00
  0.00000000E+00  0.00000000E+00  0.00000000E+00
  0.00000000E+00  0.00000000E+00  0.00000000E+00
  0.00000000E+00  0.00000000E+00  0.00000000E+00
  0.00000000E+00  0.00000000E+00  0.00000000E+00
  0.00000000E+00  0.00000000E+00  0.00000000E+00
  0.00000000E+00  0.00000000E+00  0.00000000E+00
  0.00000000E+00  0.00000000E+00  0.00000000E+00
  0.00000000E+00  0.00000000E+00  0.00000000E+00
  0.00000000E+00  0.00000000E+00  0.00000000E+00
  0.00000000E+00  0.00000000E+00  0.00000000E+00
  0.00000000E+00  0.00000000E+00  0.00000000E+00
  0.00000000E+00  0.00000000E+00  0.00000000E+00
  0.00000000E+00  0.00000000E+00  0.00000000E+00
  0.00000000E+00  0.00000000E+00  0.00000000E+00
  0.00000000E+00  0.00000000E+00  0.00000000E+00
  0.00000000E+00  0.00000000E+00  0.00000000E+00
  0.00000000E+00  0.00000000E+00  0.00000000E+00
  0.00000000E+00  0.00000000E+00  0.00000000E+00
  0.00000000E+00  0.00000000E+00  0.00000000E+00
  0.00000000E+00  0.00000000E+00  0.00000000E+00
  0.00000000E+00  0.00000000E+00  0.00000000E+00
  0.00000000E+00  0.00000000E+00  0.00000000E+00
  0.00000000E+00  0.00000000E+00  0.00000000E+00
  0.00000000E+00  0.00000000E+00  0.00000000E+00
  0.00000000E+00  0.00000000E+00  0.00000000E+00
  0.00000000E+00  0.00000000E+00  0.00000000E+00
  0.00000000E+00  0.00000000E+00  0.00000000E+00
  0.00000000E+00  0.00000000E+00  0.00000000E+00
  0.00000000E+00  0.00000000E+00  0.00000000E+00
  0.00000000E+00  0.00000000E+00  0.00000000E+00
  0.00000000E+00  0.00000000E+00  0.00000000E+00
  0.00000000E+00  0.00000000E+00  0.00000000E+00
  0.00000000E+00  0.00000000E+00  0.00000000E+00
  0.00000000E+00  0.00000000E+00  0.00000000E+00
  0.00000000E+00  0.00000000E+00  0.00000000E+00
  0.00000000E+00  0.00000000E+00  0.00000000E+00
  0.00000000E+00  0.00000000E+00  0.00000000E+00
  0.00000000E+00  0.00000000E+00  0.00000000E+00
  0.00000000E+00  0.00000000E+00  0.00000000E+00
  0.00000000E+00  0.00000000E+00  0.00000000E+00
  0.00000000E+00  0.00000000E+00  0.00000000E+00
  0.00000000E+00  0.00000000E+00  0.00000000E+00
  0.00000000E+00  0.00000000E+00  0.00000000E+00
  0.00000000E+00  0.00000000E+00  0.00000000E+00
  0.00000000E+00  0.00000000E+00  0.00000000E+00
  0.00000000E+00  0.00000000E+00  0.00000000E+00
  0.00000000E+00  0.00000000E+00  0.00000000E+00
  0.00000000E+00  0.00000000E+00  0.00000000E+00
  0.00000000E+00  0.00000000E+00  0.00000000E+00
  0.00000000E+00  0.00000000E+00  0.00000000E+00
  0.00000000E+00  0.00000000E+00  0.00000000E+00
  0.00000000E+00  0.00000000E+00  0.00000000E+00
  0.00000000E+00  0.00000000E+00  0.00000000E+00
  0.00000000E+00  0.00000000E+00  0.00000000E+00
  0.00000000E+00  0.00000000E+00  0.00000000E+00
  0.00000000E+00  0.00000000E+00  0.00000000E+00
  0.00000000E+00  0.00000000E+00  0.00000000E+00
  0.00000000E+00  0.00000000E+00  0.00000000E+00
  0.00000000E+00  0.00000000E+00  0.00000000E+00
  0.00000000E+00  0.00000000E+00  0.00000000E+00
  0.00000000E+00  0.00000000E+00  0.00000000E+00
  0.00000000E+00  0.00000000E+00  0.00000000E+00
  0.00000000E+00  0.00000000E+00  0.00000000E+00
  0.00000000E+00  0.00000000E+00  0.00000000E+00
  0.00000000E+00  0.00000000E+00  0.00000000E+00
  0.00000000E+00  0.00000000E+00  0.00000000E+00
  0.00000000E+00  0.00000000E+00  0.00000000E+00
  0.00000000E+00  0.00000000E+00  0.00000000E+00
  0.00000000E+00  0.00000000E+00  0.00000000E+00
  0.00000000E+00  0.00000000E+00  0.00000000E+00
  0.00000000E+00  0.00000000E+00  0.00000000E+00
  0.00000000E+00  0.00000000E+00  0.00000000E+00
  0.00000000E+00  0.00000000E+00  0.00000000E+00
  0.00000000E+00  0.00000000E+00  0.00000000E+00
  0.00000000E+00  0.00000000E+00  0.00000000E+00
  0.00000000E+00  0.00000000E+00  0.00000000E+00