O  Si Ru C  H                           
   1.00000000000000     
    20.3096463179830877    0.0000000000000000    0.0000000000000000
     0.0000000000000000   19.8625212307842212    0.0000000000000000
     0.0000000000000000    0.0000000000000000   13.3711533343531652
   O    Si   Ru   C    H 
   192    96     4     2     3
Selective dynamics
Direct
  0.5034052676413907  0.0550055385503470  0.7110427161567756   F   F   F
  0.9940571144406007  0.5690452128230632  0.2141166990182057   F   F   F
  0.5062739022403164  0.4364936881205992  0.7138517932489066   F   F   F
  0.9972439911757647  0.9363414093063795  0.2106308687578959   F   F   F
  0.4961056853304484  0.9418941346402008  0.2845418439739760   F   F   F
  0.0062423223814747  0.4304292241831291  0.7906870024196380   F   F   F
  0.4958779223346284  0.5666820889872071  0.2923784438642940   F   F   F
  0.0027509681332347  0.0608283564261569  0.7850395248491751   F   F   F
  0.3860004319946171  0.0661837834766956  0.7901527142798912   F   F   F
  0.1079245152021713  0.5618881853433422  0.3063878258174810   F   F   F
  0.3917069631717354  0.4399478114919901  0.8064890243970169   F   F   F
  0.1146695609358872  0.9334777601599598  0.2924628100031228   F   F   F
  0.6131194486707088  0.9350684594476562  0.2051812513836637   F   F   F
  0.8918764922928801  0.4400188111328944  0.6987803757577709   F   F   F
  0.6079595217514253  0.5583251048207103  0.1961828452324710   F   F   F
  0.8852270903848094  0.0659961971887668  0.7045835176889099   F   F   F
  0.4148928255921405  0.1335716806957876  0.6252706047846956   F   F   F
  0.0972829237828066  0.6342944527591570  0.1407616698762126   F   F   F
  0.4044512808771827  0.3690297972200369  0.6384944062492082   F   F   F
  0.0909904683246268  0.8620826511208506  0.1295968010508233   F   F   F
  0.5875136268300167  0.8638568644357036  0.3680000687496161   F   F   F
  0.9014259382012924  0.3680311069141524  0.8635046678490070   F   F   F
  0.6024077979126830  0.6286858253519583  0.3641363948458078   F   F   F
  0.9111444329327512  0.1384794568694545  0.8652270011653513   F   F   F
  0.4012998330685775  0.0001269077611141  0.6173651706802588   F   F   F
  0.0911803845461634  0.4994755100991810  0.1304743228596266   F   F   F
  0.4064153520631706  0.5039414982317183  0.6356370691465614   F   F   F
  0.0965174569482059  0.9967352396244848  0.1169776534290605   F   F   F
  0.5946769920658639  0.9974642618869183  0.3805883730680151   F   F   F
  0.9107794455311691  0.5017856428782395  0.8747894564971830   F   F   F
  0.5913285318458890  0.4949830678516633  0.3720243899995808   F   F   F
  0.9020343878979418  0.0045483944942220  0.8819121529603962   F   F   F
  0.3235122036977742  0.0390768190464286  0.9598967237472209   F   F   F
  0.1781365380901221  0.5366434665490871  0.4690916145264765   F   F   F
  0.3225138207545868  0.4630556369557723  0.9693729905631230   F   F   F
  0.1749366404706123  0.9640965743684760  0.4603244255558678   F   F   F
  0.6757330101222081  0.9644985628697071  0.0376243238946543   F   F   F
  0.8217214258439469  0.4622201335338545  0.5348372943128652   F   F   F
  0.6789134767784191  0.5351200080547898  0.0338370368150933   F   F   F
  0.8229466529163716  0.0365760997131375  0.5365896155424750   F   F   F
  0.3188059819347870  0.9534299745773396  0.8036832698278218   F   F   F
  0.1828654876589511  0.4531321098034837  0.3106764993503575   F   F   F
  0.3148959184191469  0.5477259927772735  0.8147037620595228   F   F   F
  0.1764834955728602  0.0487460719048869  0.3031861455033606   F   F   F
  0.6817432232529654  0.0468121242411357  0.1977079700632913   F   F   F
  0.8141209086823054  0.5466691552805045  0.6931669335417325   F   F   F
  0.6853676245337610  0.4519048256977172  0.1936756040093570   F   F   F
  0.8172632027619997  0.9532996230067567  0.6966562131460989   F   F   F
  0.2549257061915000  0.0693584556098656  0.8001673247131151   F   F   F
  0.2388407756913793  0.5737350858938584  0.3034436367850191   F   F   F
  0.2620418310618220  0.4267808747837734  0.8035385988859005   F   F   F
  0.2477428687951431  0.9366296439463540  0.3014543162461507   F   F   F
  0.7446640525148425  0.9306915990785285  0.1972432583940389   F   F   F
  0.7613133727797958  0.4253160929945423  0.7006455997412289   F   F   F
  0.7397037302717351  0.5724194510371561  0.1998359310429620   F   F   F
  0.7538780909842302  0.0693657269662324  0.6962636777342439   F   F   F
  0.2934031567752839  0.1295266427402666  0.0977266082902020   F   F   F
  0.2052552724702963  0.6225302163368482  0.6153977560975719   F   F   F
  0.2929170015669698  0.3798845131849404  0.1161661212290355   F   F   F
  0.1978050251150520  0.8742387482011864  0.6035014811167088   F   F   F
  0.7031727559807166  0.8756462365376052  0.8965108260051409   F   F   F
  0.7953399579554343  0.3774100629566419  0.3894397805352483   F   F   F
  0.7059380240019451  0.6219295720433280  0.8900066627179868   F   F   F
  0.7976275844061007  0.1235258114625637  0.3945382810919753   F   F   F
  0.2005953074141615  0.0477334197895161  0.0258204391236774   F   F   F
  0.3011924077893440  0.5470288033422008  0.5336675925546217   F   F   F
  0.1994958545639847  0.4577548504295805  0.0365686107688603   F   F   F
  0.2977100184276793  0.9470248628052431  0.5279020577829172   F   F   F
  0.7985294350601535  0.9531217847871076  0.9724527193711481   F   F   F
  0.6988617509542934  0.4521510326542497  0.4677268510715393   F   F   F
  0.8013217095720009  0.5434847513366350  0.9647568046801709   F   F   F
  0.7007032581430721  0.0474770950156866  0.4684192116265962   F   F   F
  0.2961340437098698  0.0006980478826648  0.1444244413548148   F   F   F
  0.2084400875533419  0.4906707457016637  0.6492238623877498   F   F   F
  0.2943061035512500  0.5107510122864483  0.1485278359580704   F   F   F
  0.2063352609862221  0.0052398686243649  0.6421645618940630   F   F   F
  0.7061683125979883  0.0054753775080627  0.8561918658687659   F   F   F
  0.7921114264479385  0.5080534775275467  0.3555600152421192   F   F   F
  0.7059061223298642  0.4910229477130059  0.8532746608715414   F   F   F
  0.7946779296852498  0.9933690258550172  0.3549873725968737   F   F   F
  0.1090902033823511  0.1303573728265803  0.0989693295707426   F   F   F
  0.3905663266458319  0.6360919573337966  0.6017227173083484   F   F   F
  0.1101508926992736  0.3694241239697362  0.0986642334413190   F   F   F
  0.3911632848647102  0.8668107644061678  0.6004368025356470   F   F   F
  0.8882701433173281  0.8715817600917717  0.8945657077130562   F   F   F
  0.6098910812240561  0.3648754339705391  0.4012760203191661   F   F   F
  0.8905492219567321  0.6321549593209852  0.9005392508449859   F   F   F
  0.6101492603491963  0.1303108975033354  0.3948955355996375   F   F   F
  0.0818215467531758  0.0547322040355880  0.9425288233582023   F   F   F
  0.4207296776354141  0.5492165245353036  0.4538680116613278   F   F   F
  0.0822105276785763  0.4508417916353977  0.9491965542415599   F   F   F
  0.4147213744599298  0.9433047563214174  0.4415046195569232   F   F   F
  0.9173785970099431  0.9439844524165011  0.0538220783401115   F   F   F
  0.5809074231448292  0.4446725074731361  0.5524945114663780   F   F   F
  0.9168883323196013  0.5536818649940685  0.0553092973169385   F   F   F
  0.5835604633079896  0.0577805452420250  0.5546234880750944   F   F   F
  0.1282899756061155  0.0780008581683447  0.7590265712758253   F   F   F
  0.3671492923983664  0.5814035381340901  0.2737721731678704   F   F   F
  0.1335130363561561  0.4191864952341646  0.7724761681029406   F   F   F
  0.3704764084731806  0.9206010521977603  0.2532304040672884   F   F   F
  0.8707530264370362  0.9197964239340379  0.2370480892766196   F   F   F
  0.6325311252876133  0.4164112572664749  0.7306562592928785   F   F   F
  0.8671340229357938  0.5819311658357336  0.2346480478566448   F   F   F
  0.6274490476691312  0.0791980627703808  0.7404116910076013   F   F   F
  0.0844766091843638  0.9568903271234532  0.8060180078347372   F   F   F
  0.4168795166790389  0.4613732731016569  0.3043838794097482   F   F   F
  0.0818330292987000  0.5394620284882876  0.7996428210785496   F   F   F
  0.4111156615880489  0.0435768433814090  0.3080747727763082   F   F   F
  0.9157130672559859  0.0402468509113234  0.1924420601781875   F   F   F
  0.5894607709974267  0.5381666240807377  0.6945492098429327   F   F   F
  0.9158058369690778  0.4616808215589430  0.2005380825525620   F   F   F
  0.5908637517879640  0.9571961165115681  0.6861278280830163   F   F   F
  0.2138119578230828  0.1393758685138806  0.6456245603661017   F   F   F
  0.2872227802268199  0.6446826359528330  0.1543141487378037   F   F   F
  0.2137825216016083  0.3569369657091315  0.6519960661767641   F   F   F
  0.2776689096499325  0.8677764296180328  0.1434571101156692   F   F   F
  0.7835331427829999  0.8597367491364878  0.3511859210134602   F   F   F
  0.7145625681784225  0.3565969124663795  0.8513559319821979   F   F   F
  0.7825309815333057  0.6422466882748097  0.3531609859591498   F   F   F
  0.7159706142371149  0.1397769061049274  0.8510323378456306   F   F   F
  0.4952518900469443  0.8662998150931855  0.7206160122446619   F   F   F
  0.0027137136647823  0.3614966169514489  0.2151079558749345   F   F   F
  0.5000944229569342  0.6352867703661786  0.7177054238744915   F   F   F
  0.0050964188674243  0.1381525637117988  0.2196971739221070   F   F   F
  0.5051352772050848  0.1344037512861291  0.2754465207766117   F   F   F
  0.9999248655318880  0.6439825588263943  0.7881470433973377   F   F   F
  0.5025571093669328  0.3612376196554976  0.2838974318574543   F   F   F
  0.9938600300648091  0.8620225152977170  0.7753269509117757   F   F   F
  0.3795388037206138  0.8351627368690941  0.7934734555678773   F   F   F
  0.1178268577638804  0.3366399324871097  0.2921124194182170   F   F   F
  0.3865933354967979  0.6599937660494959  0.8006827108335131   F   F   F
  0.1222521299490467  0.1692971204374061  0.2890590385744503   F   F   F
  0.6206229572881412  0.1653007615630457  0.2038134878761824   F   F   F
  0.8856074909756302  0.6592352588388053  0.7051831698263129   F   F   F
  0.6174422983904222  0.3362215547624317  0.2070160340928098   F   F   F
  0.8764460162719416  0.8346617693141454  0.7028769715761527   F   F   F
  0.4380194479168793  0.7500564446219187  0.6719372465306321   F   F   F
  0.0665618075347965  0.2504600554604224  0.1583135079782636   F   F   F
  0.5645874317654744  0.2479678238586942  0.3340051530460997   F   F   F
  0.9286989547796694  0.7513364166603296  0.8363634759505203   F   F   F
  0.3109469380747854  0.8669937804723062  0.9533244432710504   F   F   F
  0.1818137457952957  0.3657727525099830  0.4597679888000386   F   F   F
  0.3178621793008034  0.6384219695531996  0.9607321563875288   F   F   F
  0.1874455014977627  0.1346248867778428  0.4517303154544265   F   F   F
  0.6905805530668943  0.1294295321543544  0.0444401557025458   F   F   F
  0.8138207765267751  0.6328511139349473  0.5447083227080896   F   F   F
  0.6846901247015040  0.3662677462689601  0.0436739664638353   F   F   F
  0.8054310931629161  0.8702467692299933  0.5436748845727948   F   F   F
  0.2491463113492713  0.8429875810153575  0.7817209190502652   F   F   F
  0.2487377684641032  0.3387011809651952  0.2938286264352854   F   F   F
  0.2567220513576842  0.6648911019331507  0.7879307912698934   F   F   F
  0.2526993416978129  0.1565239931586930  0.2838299206742363   F   F   F
  0.7507967168234941  0.1596414709492606  0.2141941826279989   F   F   F
  0.7559632252322075  0.6641551240542611  0.7163419764484900   F   F   F
  0.7480449433873488  0.3363770140350084  0.2123012764091996   F   F   F
  0.7461507530576341  0.8414610650721315  0.7151492900732634   F   F   F
  0.2824306942306549  0.7535955883952781  0.0470160380029228   F   F   F
  0.2168196333452954  0.2496861806421506  0.5394200007870182   F   F   F
  0.7091193396010169  0.2481497811635407  0.9621473851300095   F   F   F
  0.7933375396691105  0.7516305727737347  0.4610254540312155   F   F   F
  0.1886019206679848  0.8416233291871364  0.0009625641760920   F   F   F
  0.3065564710080722  0.3461049511792424  0.5120507786151762   F   F   F
  0.1943450422767938  0.6563288930083786  0.0132915686269115   F   F   F
  0.3096038791836904  0.1564747873508381  0.5117719434227723   F   F   F
  0.8098982741145235  0.1640690777623135  0.9860228741606250   F   F   F
  0.6931522203476348  0.6690028872136224  0.4926228663109598   F   F   F
  0.8063092310596005  0.3364559783222134  0.9914067658589190   F   F   F
  0.6886367637521928  0.8297353357611499  0.4807782911315073   F   F   F
  0.0985838016488572  0.7462164983534691  0.0377470854129953   F   F   F
  0.3991972244549018  0.2531532829056076  0.5452880719290079   F   F   F
  0.9074075924216203  0.2533986812305571  0.9621087655199716   F   F   F
  0.5872219984023559  0.7451088894848539  0.4510975204911034   F   F   F
  0.0677965897270028  0.8564818817310211  0.9349878145173491   F   F   F
  0.4262258112005668  0.3645337524800780  0.4423936903490926   F   F   F
  0.0767129853891362  0.6299168485735578  0.9461682940467213   F   F   F
  0.4264418093067874  0.1477350792922820  0.4291076055147585   F   F   F
  0.9273785734166680  0.1399944987988349  0.0620031325075701   F   F   F
  0.5757048798984030  0.6338564477334714  0.5588676618306891   F   F   F
  0.9238534657584410  0.3687062378972925  0.0590815589065841   F   F   F
  0.5733325717640838  0.8536308573804021  0.5662878791154782   F   F   F
  0.1203983350297761  0.8345532794417210  0.7532858054272324   F   F   F
  0.3760777294613789  0.3379047495284055  0.2609196189876712   F   F   F
  0.1271057305776324  0.6618971690116737  0.7663528021931256   F   F   F
  0.3794766450196505  0.1620214419410217  0.2417588585670885   F   F   F
  0.8789765646717171  0.1625323529564824  0.2461687409394173   F   F   F
  0.6274046738600703  0.6619605009871492  0.7403005142089896   F   F   F
  0.8766033442414383  0.3380428270696214  0.2410696040365181   F   F   F
  0.6197697014470833  0.8353109204349636  0.7526596868733790   F   F   F
  0.1985934090582191  0.7484673713821266  0.6630310374742834   F   F   F
  0.2993482627990147  0.2531782933918763  0.1641786469484856   F   F   F
  0.8026480099131703  0.2502345236504908  0.3378371906485143   F   F   F
  0.6988583152344674  0.7492042323394656  0.8406236997847358   F   F   F
  0.4251402929672494  0.0632125719120182  0.6838952373408276   F   F   F
  0.0728083244138915  0.5653258409921946  0.1969403708057555   F   F   F
  0.4272005178321550  0.4367670736760800  0.6968712105992623   F   F   F
  0.0743934330958780  0.9332370087190114  0.1866916411114659   F   F   F
  0.5714280223140165  0.9352731402607901  0.3095156916019448   F   F   F
  0.9273679895318878  0.4350073792893383  0.8078414285287963   F   F   F
  0.5742028516440385  0.5611922980106527  0.3073673149998939   F   F   F
  0.9250853912375518  0.0672743686621402  0.8104862527035621   F   F   F
  0.3210497093049725  0.0322928116350738  0.8391443091150919   F   F   F
  0.1772889581389094  0.5313774082100906  0.3484543139927965   F   F   F
  0.3225210336586102  0.4694222269538741  0.8500403141402941   F   F   F
  0.1775450919246637  0.9716342277771162  0.3400008325984842   F   F   F
  0.6788966216982075  0.9694511330530133  0.1580773911072200   F   F   F
  0.8224997909873650  0.4682583450253475  0.6558362766257630   F   F   F
  0.6782333901045945  0.5291612978080451  0.1548458252837648   F   F   F
  0.8200479177243096  0.0315203166515161  0.6576981880213353   F   F   F
  0.2775149793970400  0.0550550346219438  0.0557356601522727   F   F   F
  0.2228850894998402  0.5491662425747847  0.5667668913916799   F   F   F
  0.2764326462965343  0.4526105866193575  0.0686272492664202   F   F   F
  0.2205320403582220  0.9474525695843923  0.5587664493886564   F   F   F
  0.7210939198565640  0.9499387587878729  0.9408082419496040   F   F   F
  0.7766781688083100  0.4493296546345888  0.4360785736356263   F   F   F
  0.7234483933102567  0.5475245264770052  0.9356643689583919   F   F   F
  0.7782297071199693  0.0507129396447183  0.4379994584663933   F   F   F
  0.1221977012711477  0.0575908032293739  0.0463474430702391   F   F   F
  0.3787008259490037  0.5591054616424742  0.5549056075192382   F   F   F
  0.1213435789385997  0.4442167213877184  0.0541788871231432   F   F   F
  0.3756683317642953  0.9392065106108447  0.5457764304829382   F   F   F
  0.8763073622070578  0.9436750641147214  0.9499310336972897   F   F   F
  0.6211545010593369  0.4386311978856696  0.4483612001496695   F   F   F
  0.8794191032267520  0.5574859613078686  0.9485021251605161   F   F   F
  0.6232919024939321  0.0596868010548732  0.4497700982053559   F   F   F
  0.0743612748664333  0.0369427376956892  0.8242883184391303   F   F   F
  0.4240848167573859  0.5383731922258050  0.3321303481978504   F   F   F
  0.0760007407255756  0.4606554636725875  0.8296636764876766   F   F   F
  0.4240040651890453  0.9615247588904978  0.3255982154930450   F   F   F
  0.9251516598769882  0.9608377483292116  0.1724962688689260   F   F   F
  0.5772550262657887  0.4587467536600940  0.6719203117004682   F   F   F
  0.9235133775750057  0.5406541098558790  0.1748432113288132   F   F   F
  0.5760720257560337  0.0376381296684656  0.6715722441819665   F   F   F
  0.2011311027896738  0.0720452184776477  0.7093587048322760   F   F   F
  0.2971244346143678  0.5758804464833460  0.2211214890262383   F   F   F
  0.2043222889327510  0.4246602282335061  0.7171128551516617   F   F   F
  0.2959043150174949  0.9333043999754977  0.2093736498724041   F   F   F
  0.7987384554307724  0.9270267018213829  0.2859930575737835   F   F   F
  0.7036986004431114  0.4233110755154001  0.7848737779827530   F   F   F
  0.7951796676610101  0.5748892112981778  0.2861891817738211   F   F   F
  0.7009497994185310  0.0730718178826635  0.7870943956229297   F   F   F
  0.4262735381911753  0.8290305285664914  0.6965498134036068   F   F   F
  0.0743326359626479  0.3291099425989259  0.1902921194287472   F   F   F
  0.4290973711190205  0.6708324408051496  0.6982289314089130   F   F   F
  0.0750436577210749  0.1717853974499022  0.1909404169143016   F   F   F
  0.5745649180035244  0.1692884395471665  0.3022740996186499   F   F   F
  0.9262906068231516  0.6719984318263954  0.8078814369972491   F   F   F
  0.5735211384946695  0.3272276630194142  0.3069320570164038   F   F   F
  0.9222744077365306  0.8301574436702239  0.8024166163856350   F   F   F
  0.3147142195830384  0.8747437144632215  0.8313196714315865   F   F   F
  0.1824668006982151  0.3732639632259520  0.3385621092492244   F   F   F
  0.3182264085717179  0.6278976773756924  0.8414582196129317   F   F   F
  0.1850970318905425  0.1274428160287471  0.3321847107752163   F   F   F
  0.6858850794679938  0.1264481238535353  0.1652491551000068   F   F   F
  0.8182905436105585  0.6256164035300671  0.6650144434926446   F   F   F
  0.6837990892950785  0.3721535878762694  0.1643522736688396   F   F   F
  0.8118934921681813  0.8751493636876404  0.6644398007302499   F   F   F
  0.2645406127107108  0.8322586064654729  0.0361147619332982   F   F   F
  0.2303041586883481  0.3292403585989234  0.5409873943810268   F   F   F
  0.2706497011629807  0.6734234920241065  0.0441210035933040   F   F   F
  0.2328574134365056  0.1702491295387460  0.5374104684559597   F   F   F
  0.7323073164740208  0.1706453601414708  0.9607752683794857   F   F   F
  0.7703673529492576  0.6736906510849394  0.4619359307087194   F   F   F
  0.7294526021356020  0.3266488647969510  0.9622087340550181   F   F   F
  0.7667889333774696  0.8282808925293565  0.4587424135430354   F   F   F
  0.1106853873633256  0.8266973427067441  0.0265327419725949   F   F   F
  0.3840017023289377  0.3321127368469874  0.5333830530452275   F   F   F
  0.1166791874034985  0.6670726045602748  0.0349828143251685   F   F   F
  0.3868985499819360  0.1726142392006906  0.5272068546961322   F   F   F
  0.8884062604284537  0.1741411021267751  0.9690735666613008   F   F   F
  0.6146473082846597  0.6686622398018187  0.4668365927326477   F   F   F
  0.8842772916524950  0.3310714126911023  0.9689321011913776   F   F   F
  0.6097859649386592  0.8250430298422486  0.4659303727398338   F   F   F
  0.0665965365775278  0.8781918650176266  0.8177027441139089   F   F   F
  0.4298216718951409  0.3807155628543342  0.3234907363286155   F   F   F
  0.0721360559325959  0.6186939168903578  0.8252674164876694   F   F   F
  0.4297505187421891  0.1213744443465998  0.3147609217269931   F   F   F
  0.9310650268342044  0.1205866810046672  0.1793687627061473   F   F   F
  0.5740608304021180  0.6177576079196854  0.6779248765527015   F   F   F
  0.9292984031276745  0.3818385339042720  0.1787809424833782   F   F   F
  0.5700178519731054  0.8780676721077754  0.6803562551120450   F   F   F
  0.1918238555711440  0.8267106265032353  0.6997474067679832   F   F   F
  0.3046720287829956  0.3287813571057185  0.2090641170528045   F   F   F
  0.1970162083543983  0.6732850343610650  0.7078446255430322   F   F   F
  0.3067045660217360  0.1742558479335656  0.1975823046513128   F   F   F
  0.8075194818699174  0.1730226056949675  0.2982795875363564   F   F   F
  0.6968954076059077  0.6728176545065025  0.7975150999521574   F   F   F
  0.8057806993803496  0.3262664074171084  0.2948758013481623   F   F   F
  0.6925361618474142  0.8267796040208566  0.8021531932071824   F   F   F
  0.3110345157289487  0.7617959530333351  0.3244834826194989   F   F   F
  0.4106827528139121  0.7926849750938487  0.2492583266439397   F   F   F
  0.3781178977712472  0.7161221960764408  0.4530263002908086   F   F   F
  0.4778143730049962  0.7435263801639351  0.3740141397822754   F   F   F
  0.4640475379976223  0.7182821271794850  0.2184492735030759   T   T   T
  0.4592877031442200  0.7875438360140237  0.1194004358584664   T   T   T
  0.5023278912507436  0.7837768945579171  0.0635935603385533   T   T   T
  0.4716013984854115  0.6699580048394864  0.1807151759391559   T   T   T
  0.4134962599313852  0.8002388815374388  0.0733932616341690   T   T   T
 
  0.00000000E+00  0.00000000E+00  0.00000000E+00
  0.00000000E+00  0.00000000E+00  0.00000000E+00
  0.00000000E+00  0.00000000E+00  0.00000000E+00
  0.00000000E+00  0.00000000E+00  0.00000000E+00
  0.00000000E+00  0.00000000E+00  0.00000000E+00
  0.00000000E+00  0.00000000E+00  0.00000000E+00
  0.00000000E+00  0.00000000E+00  0.00000000E+00
  0.00000000E+00  0.00000000E+00  0.00000000E+00
  0.00000000E+00  0.00000000E+00  0.00000000E+00
  0.00000000E+00  0.00000000E+00  0.00000000E+00
  0.00000000E+00  0.00000000E+00  0.00000000E+00
  0.00000000E+00  0.00000000E+00  0.00000000E+00
  0.00000000E+00  0.00000000E+00  0.00000000E+00
  0.00000000E+00  0.00000000E+00  0.00000000E+00
  0.00000000E+00  0.00000000E+00  0.00000000E+00
  0.00000000E+00  0.00000000E+00  0.00000000E+00
  0.00000000E+00  0.00000000E+00  0.00000000E+00
  0.00000000E+00  0.00000000E+00  0.00000000E+00
  0.00000000E+00  0.00000000E+00  0.00000000E+00
  0.00000000E+00  0.00000000E+00  0.00000000E+00
  0.00000000E+00  0.00000000E+00  0.00000000E+00
  0.00000000E+00  0.00000000E+00  0.00000000E+00
  0.00000000E+00  0.00000000E+00  0.00000000E+00
  0.00000000E+00  0.00000000E+00  0.00000000E+00
  0.00000000E+00  0.00000000E+00  0.00000000E+00
  0.00000000E+00  0.00000000E+00  0.00000000E+00
  0.00000000E+00  0.00000000E+00  0.00000000E+00
  0.00000000E+00  0.00000000E+00  0.00000000E+00
  0.00000000E+00  0.00000000E+00  0.00000000E+00
  0.00000000E+00  0.00000000E+00  0.00000000E+00
  0.00000000E+00  0.00000000E+00  0.00000000E+00
  0.00000000E+00  0.00000000E+00  0.00000000E+00
  0.00000000E+00  0.00000000E+00  0.00000000E+00
  0.00000000E+00  0.00000000E+00  0.00000000E+00
  0.00000000E+00  0.00000000E+00  0.00000000E+00
  0.00000000E+00  0.00000000E+00  0.00000000E+00
  0.00000000E+00  0.00000000E+00  0.00000000E+00
  0.00000000E+00  0.00000000E+00  0.00000000E+00
  0.00000000E+00  0.00000000E+00  0.00000000E+00
  0.00000000E+00  0.00000000E+00  0.00000000E+00
  0.00000000E+00  0.00000000E+00  0.00000000E+00
  0.00000000E+00  0.00000000E+00  0.00000000E+00
  0.00000000E+00  0.00000000E+00  0.00000000E+00
  0.00000000E+00  0.00000000E+00  0.00000000E+00
  0.00000000E+00  0.00000000E+00  0.00000000E+00
  0.00000000E+00  0.00000000E+00  0.00000000E+00
  0.00000000E+00  0.00000000E+00  0.00000000E+00
  0.00000000E+00  0.00000000E+00  0.00000000E+00
  0.00000000E+00  0.00000000E+00  0.00000000E+00
  0.00000000E+00  0.00000000E+00  0.00000000E+00
  0.00000000E+00  0.00000000E+00  0.00000000E+00
  0.00000000E+00  0.00000000E+00  0.00000000E+00
  0.00000000E+00  0.00000000E+00  0.00000000E+00
  0.00000000E+00  0.00000000E+00  0.00000000E+00
  0.00000000E+00  0.00000000E+00  0.00000000E+00
  0.00000000E+00  0.00000000E+00  0.00000000E+00
  0.00000000E+00  0.00000000E+00  0.00000000E+00
  0.00000000E+00  0.00000000E+00  0.00000000E+00
  0.00000000E+00  0.00000000E+00  0.00000000E+00
  0.00000000E+00  0.00000000E+00  0.00000000E+00
  0.00000000E+00  0.00000000E+00  0.00000000E+00
  0.00000000E+00  0.00000000E+00  0.00000000E+00
  0.00000000E+00  0.00000000E+00  0.00000000E+00
  0.00000000E+00  0.00000000E+00  0.00000000E+00
  0.00000000E+00  0.00000000E+00  0.00000000E+00
  0.00000000E+00  0.00000000E+00  0.00000000E+00
  0.00000000E+00  0.00000000E+00  0.00000000E+00
  0.00000000E+00  0.00000000E+00  0.00000000E+00
  0.00000000E+00  0.00000000E+00  0.00000000E+00
  0.00000000E+00  0.00000000E+00  0.00000000E+00
  0.00000000E+00  0.00000000E+00  0.00000000E+00
  0.00000000E+00  0.00000000E+00  0.00000000E+00
  0.00000000E+00  0.00000000E+00  0.00000000E+00
  0.00000000E+00  0.00000000E+00  0.00000000E+00
  0.00000000E+00  0.00000000E+00  0.00000000E+00
  0.00000000E+00  0.00000000E+00  0.00000000E+00
  0.00000000E+00  0.00000000E+00  0.00000000E+00
  0.00000000E+00  0.00000000E+00  0.00000000E+00
  0.00000000E+00  0.00000000E+00  0.00000000E+00
  0.00000000E+00  0.00000000E+00  0.00000000E+00
  0.00000000E+00  0.00000000E+00  0.00000000E+00
  0.00000000E+00  0.00000000E+00  0.00000000E+00
  0.00000000E+00  0.00000000E+00  0.00000000E+00
  0.00000000E+00  0.00000000E+00  0.00000000E+00
  0.00000000E+00  0.00000000E+00  0.00000000E+00
  0.00000000E+00  0.00000000E+00  0.00000000E+00
  0.00000000E+00  0.00000000E+00  0.00000000E+00
  0.00000000E+00  0.00000000E+00  0.00000000E+00
  0.00000000E+00  0.00000000E+00  0.00000000E+00
  0.00000000E+00  0.00000000E+00  0.00000000E+00
  0.00000000E+00  0.00000000E+00  0.00000000E+00
  0.00000000E+00  0.00000000E+00  0.00000000E+00
  0.00000000E+00  0.00000000E+00  0.00000000E+00
  0.00000000E+00  0.00000000E+00  0.00000000E+00
  0.00000000E+00  0.00000000E+00  0.00000000E+00
  0.00000000E+00  0.00000000E+00  0.00000000E+00
  0.00000000E+00  0.00000000E+00  0.00000000E+00
  0.00000000E+00  0.00000000E+00  0.00000000E+00
  0.00000000E+00  0.00000000E+00  0.00000000E+00
  0.00000000E+00  0.00000000E+00  0.00000000E+00
  0.00000000E+00  0.00000000E+00  0.00000000E+00
  0.00000000E+00  0.00000000E+00  0.00000000E+00
  0.00000000E+00  0.00000000E+00  0.00000000E+00
  0.00000000E+00  0.00000000E+00  0.00000000E+00
  0.00000000E+00  0.00000000E+00  0.00000000E+00
  0.00000000E+00  0.00000000E+00  0.00000000E+00
  0.00000000E+00  0.00000000E+00  0.00000000E+00
  0.00000000E+00  0.00000000E+00  0.00000000E+00
  0.00000000E+00  0.00000000E+00  0.00000000E+00
  0.00000000E+00  0.00000000E+00  0.00000000E+00
  0.00000000E+00  0.00000000E+00  0.00000000E+00
  0.00000000E+00  0.00000000E+00  0.00000000E+00
  0.00000000E+00  0.00000000E+00  0.00000000E+00
  0.00000000E+00  0.00000000E+00  0.00000000E+00
  0.00000000E+00  0.00000000E+00  0.00000000E+00
  0.00000000E+00  0.00000000E+00  0.00000000E+00
  0.00000000E+00  0.00000000E+00  0.00000000E+00
  0.00000000E+00  0.00000000E+00  0.00000000E+00
  0.00000000E+00  0.00000000E+00  0.00000000E+00
  0.00000000E+00  0.00000000E+00  0.00000000E+00
  0.00000000E+00  0.00000000E+00  0.00000000E+00
  0.00000000E+00  0.00000000E+00  0.00000000E+00
  0.00000000E+00  0.00000000E+00  0.00000000E+00
  0.00000000E+00  0.00000000E+00  0.00000000E+00
  0.00000000E+00  0.00000000E+00  0.00000000E+00
  0.00000000E+00  0.00000000E+00  0.00000000E+00
  0.00000000E+00  0.00000000E+00  0.00000000E+00
  0.00000000E+00  0.00000000E+00  0.00000000E+00
  0.00000000E+00  0.00000000E+00  0.00000000E+00
  0.00000000E+00  0.00000000E+00  0.00000000E+00
  0.00000000E+00  0.00000000E+00  0.00000000E+00
  0.00000000E+00  0.00000000E+00  0.00000000E+00
  0.00000000E+00  0.00000000E+00  0.00000000E+00
  0.00000000E+00  0.00000000E+00  0.00000000E+00
  0.00000000E+00  0.00000000E+00  0.00000000E+00
  0.00000000E+00  0.00000000E+00  0.00000000E+00
  0.00000000E+00  0.00000000E+00  0.00000000E+00
  0.00000000E+00  0.00000000E+00  0.00000000E+00
  0.00000000E+00  0.00000000E+00  0.00000000E+00
  0.00000000E+00  0.00000000E+00  0.00000000E+00
  0.00000000E+00  0.00000000E+00  0.00000000E+00
  0.00000000E+00  0.00000000E+00  0.00000000E+00
  0.00000000E+00  0.00000000E+00  0.00000000E+00
  0.00000000E+00  0.00000000E+00  0.00000000E+00
  0.00000000E+00  0.00000000E+00  0.00000000E+00
  0.00000000E+00  0.00000000E+00  0.00000000E+00
  0.00000000E+00  0.00000000E+00  0.00000000E+00
  0.00000000E+00  0.00000000E+00  0.00000000E+00
  0.00000000E+00  0.00000000E+00  0.00000000E+00
  0.00000000E+00  0.00000000E+00  0.00000000E+00
  0.00000000E+00  0.00000000E+00  0.00000000E+00
  0.00000000E+00  0.00000000E+00  0.00000000E+00
  0.00000000E+00  0.00000000E+00  0.00000000E+00
  0.00000000E+00  0.00000000E+00  0.00000000E+00
  0.00000000E+00  0.00000000E+00  0.00000000E+00
  0.00000000E+00  0.00000000E+00  0.00000000E+00
  0.00000000E+00  0.00000000E+00  0.00000000E+00
  0.00000000E+00  0.00000000E+00  0.00000000E+00
  0.00000000E+00  0.00000000E+00  0.00000000E+00
  0.00000000E+00  0.00000000E+00  0.00000000E+00
  0.00000000E+00  0.00000000E+00  0.00000000E+00
  0.00000000E+00  0.00000000E+00  0.00000000E+00