O  Si Ru C  H                           
   1.00000000000000     
    20.3096463179830877    0.0000000000000000    0.0000000000000000
     0.0000000000000000   19.8625212307842212    0.0000000000000000
     0.0000000000000000    0.0000000000000000   13.3711533343531652
   O    Si   Ru   C    H 
   192    96     4     2     2
Selective dynamics
Direct
  0.5030219167759711  0.0548461875679251  0.7109885588016525   F   F   F
  0.9938937966979324  0.5688180105077834  0.2134779456062077   F   F   F
  0.5058956248501190  0.4361552484777675  0.7140707746348838   F   F   F
  0.9969307407971257  0.9367893372251643  0.2107947719995664   F   F   F
  0.4958408861162911  0.9422503273530866  0.2849724314810265   T   T   T
  0.0061283812685033  0.4303203659587496  0.7907562439232407   F   F   F
  0.4958704494502178  0.5649596387373179  0.2917337594113072   T   T   T
  0.0027339203094314  0.0605959185820666  0.7849661673386237   F   F   F
  0.3860705436552152  0.0662908389672339  0.7898483222843495   F   F   F
  0.1080294789739026  0.5613361729644369  0.3062999105651968   T   T   T
  0.3918973571895847  0.4397638812510323  0.8065636103196709   F   F   F
  0.1147115176249019  0.9333003074910914  0.2916230864287902   T   T   T
  0.6132230260312957  0.9351565393418065  0.2056696900018750   T   T   T
  0.8919509899701055  0.4400130574133243  0.6987715011187490   F   F   F
  0.6082915745495163  0.5579173251229169  0.1964178787899228   T   T   T
  0.8853584736240236  0.0660009794866809  0.7049171348436332   F   F   F
  0.4150774022189836  0.1337363939151075  0.6252671151390388   F   F   F
  0.0975162402561058  0.6337585979754553  0.1414446656108924   T   T   T
  0.4044305306972689  0.3699867360294036  0.6381449100672327   F   F   F
  0.0903320172598234  0.8624314091363360  0.1298171952249298   T   T   T
  0.5872165059363744  0.8647225566254549  0.3679722729202038   T   T   T
  0.9012951326334360  0.3677353588413155  0.8635668509875813   F   F   F
  0.6040558711074343  0.6267439274867264  0.3635327883925943   T   T   T
  0.9112861698241019  0.1385584644683746  0.8654262326200737   F   F   F
  0.4009465788612658  0.0003366559156817  0.6165760238177427   F   F   F
  0.0914120808619359  0.4995622485105713  0.1308651115583501   F   F   F
  0.4063484930788377  0.5049088294740187  0.6354759932715481   F   F   F
  0.0962577091483821  0.9967226861429990  0.1173054055962820   T   T   T
  0.5957212947110372  0.9972815401056726  0.3816487394228467   T   T   T
  0.9106315066055970  0.5015670825534002  0.8744907445373258   F   F   F
  0.5925023563222496  0.4944792789522339  0.3715287391515290   F   F   F
  0.9022199965761573  0.0052555491557555  0.8816219983168239   F   F   F
  0.3236763346367226  0.0390849954636465  0.9596190254799808   F   F   F
  0.1781854008081883  0.5369617515125455  0.4692886645625188   T   T   T
  0.3222850025971056  0.4629383710016981  0.9699889858142186   F   F   F
  0.1751378523517963  0.9639525629471420  0.4610823345390903   T   T   T
  0.6755816477808096  0.9644119496889090  0.0375631872379998   F   F   F
  0.8220864981557554  0.4623019861829079  0.5348732404526615   F   F   F
  0.6788020528671694  0.5351181818680715  0.0339731601972346   F   F   F
  0.8232918366550948  0.0363859314931716  0.5369555647113415   F   F   F
  0.3190555857106583  0.9538288548690890  0.8029349529696560   T   T   T
  0.1828026613875764  0.4530447170232321  0.3111307768702076   F   F   F
  0.3146979899187590  0.5475580965771518  0.8144564160702036   T   T   T
  0.1764617240531692  0.0486817771329200  0.3034075776822860   F   F   F
  0.6817394605176474  0.0470454934209812  0.1975807380997239   F   F   F
  0.8143619494048266  0.5462729297259372  0.6929214013780864   F   F   F
  0.6856148074958668  0.4519167628940082  0.1932071815038725   F   F   F
  0.8172557604827233  0.9535276769460310  0.6964557413526791   F   F   F
  0.2548607853788667  0.0697059105646929  0.7998962969530083   F   F   F
  0.2389713659103451  0.5731869753588966  0.3034270155287037   T   T   T
  0.2616163031536658  0.4264322750731395  0.8029658722338908   F   F   F
  0.2465153509424378  0.9370146188678639  0.3025318727472599   T   T   T
  0.7444369052564355  0.9307159502170350  0.1966825835338923   F   F   F
  0.7611812312371882  0.4255297013006967  0.7005930661585964   F   F   F
  0.7394293504515304  0.5723968614334041  0.1994352941752950   F   F   F
  0.7538743830334411  0.0693368307397648  0.6961347307241752   F   F   F
  0.2935907023098352  0.1295622878583629  0.0976777371066220   F   F   F
  0.2056319043176129  0.6220077057417590  0.6157658422817861   T   T   T
  0.2932368320357313  0.3796491243975311  0.1163762107497988   F   F   F
  0.1980232471972471  0.8747064188932034  0.6031039017160712   T   T   T
  0.7030199906958359  0.8755265755302872  0.8968801213865163   F   F   F
  0.7956778902170640  0.3771446349440026  0.3887123650913367   F   F   F
  0.7055654889811933  0.6216571650586502  0.8900536077898664   F   F   F
  0.7978384868410231  0.1240201280495015  0.3938602504739350   F   F   F
  0.2003194207438881  0.0480133529093223  0.0248260125384050   F   F   F
  0.3010529627996276  0.5478306807350349  0.5351165513097922   T   T   T
  0.1994168682896600  0.4574177743134626  0.0360342649242611   F   F   F
  0.2972406578665442  0.9468202013442418  0.5276016183237624   T   T   T
  0.7983851310139229  0.9529093587660142  0.9728089619277682   F   F   F
  0.6993693347324594  0.4515887201150264  0.4686903531270872   F   F   F
  0.8011718841642832  0.5438844910388170  0.9647965349887286   F   F   F
  0.7012190033848285  0.0479768842980590  0.4694406562851654   F   F   F
  0.2947091350021438  0.0008717877675224  0.1434675908507685   F   F   F
  0.2086500990079045  0.4909310820499329  0.6483418020074723   F   F   F
  0.2937497253626447  0.5108228139304529  0.1491163022236606   F   F   F
  0.2065871190241211  0.0049271126571142  0.6420673287068794   F   F   F
  0.7060343453906555  0.0056847524033827  0.8556015044883623   F   F   F
  0.7917636361775564  0.5083251590023323  0.3556352680996895   F   F   F
  0.7060479882548378  0.4907635822103842  0.8530727305260370   F   F   F
  0.7944050248007812  0.9936956690758123  0.3551952969300771   F   F   F
  0.1092684659389747  0.1304696671311660  0.0990796631821311   F   F   F
  0.3908143985358398  0.6354054877415569  0.6012039739932964   T   T   T
  0.1100096487961792  0.3689727465953467  0.0991274144746015   F   F   F
  0.3913691014917955  0.8669918702955174  0.6006129327056817   T   T   T
  0.8885015920293000  0.8715936971463023  0.8942108245790905   F   F   F
  0.6100512307239683  0.3639304705363102  0.4014410741104300   F   F   F
  0.8906687961864961  0.6323115678928843  0.9003059014744395   F   F   F
  0.6103918537151856  0.1306641015050758  0.3951140152193915   F   F   F
  0.0816241107146993  0.0546683855452983  0.9422816270915035   F   F   F
  0.4205766516408517  0.5496116360832386  0.4525041290028783   T   T   T
  0.0818887957015733  0.4509270726163876  0.9491296043751305   F   F   F
  0.4149668190532604  0.9419077545096125  0.4409859835825810   T   T   T
  0.9173365549630859  0.9437625292965492  0.0541544196464372   F   F   F
  0.5810462649621115  0.4445094042487341  0.5526524453408044   F   F   F
  0.9169692069558621  0.5537452167740753  0.0551219437514519   F   F   F
  0.5835136938986025  0.0581106726361824  0.5550008316085737   F   F   F
  0.1283920876083542  0.0780945939782072  0.7590954286687790   F   F   F
  0.3680184528876106  0.5805635579287944  0.2745972780234197   T   T   T
  0.1334544540808267  0.4191884064218456  0.7722630546641724   F   F   F
  0.3712860472131292  0.9227200462365672  0.2527119298508964   T   T   T
  0.8710284594215665  0.9196968581495142  0.2374826981147180   F   F   F
  0.6327393016155867  0.4162746520556908  0.7307264628348946   F   F   F
  0.8669578796510891  0.5819463238134048  0.2346949969655583   F   F   F
  0.6276238057634842  0.0791576187059917  0.7400974704835548   F   F   F
  0.0846822588337826  0.9568517227725906  0.8060187879867030   T   T   T
  0.4158900576007767  0.4599816032013067  0.3051486684992781   F   F   F
  0.0819020985924019  0.5397104098851625  0.7995928223450973   T   T   T
  0.4108150758446527  0.0425469562277243  0.3100261223800374   F   F   F
  0.9154264304770479  0.0409041832259120  0.1923766671616605   F   F   F
  0.5893031384726803  0.5387652100418170  0.6943207957901212   T   T   T
  0.9158174449620873  0.4612676918570742  0.2001544616488999   F   F   F
  0.5906841693569618  0.9568454798472128  0.6859025523705287   T   T   T
  0.2139646218813027  0.1395277443509571  0.6457339192986851   F   F   F
  0.2868662353884335  0.6445590281049524  0.1549995279416125   T   T   T
  0.2137150846519162  0.3567663849162059  0.6520774866142602   F   F   F
  0.2771827289899673  0.8671950396583246  0.1438300097504235   T   T   T
  0.7830198740398302  0.8598327394153955  0.3506778121665590   F   F   F
  0.7147192569278644  0.3564015061239800  0.8516031366781078   F   F   F
  0.7823615995470803  0.6421374822965689  0.3523063707167182   F   F   F
  0.7160884871365027  0.1398147600816202  0.8513629894559571   F   F   F
  0.4956416774274399  0.8661611153850202  0.7210675811655459   T   T   T
  0.0026254273645137  0.3615096809914391  0.2153508219637388   F   F   F
  0.5000743491651511  0.6355410863035247  0.7162783485825480   T   T   T
  0.0049600637063207  0.1378823570435230  0.2196306668012298   F   F   F
  0.5047109101508624  0.1338380350660628  0.2755399485317938   F   F   F
  0.0001797368201174  0.6437707854866098  0.7885055626580226   T   T   T
  0.5025922885336271  0.3611993123721149  0.2840919578486094   F   F   F
  0.9937877574828278  0.8619398859819327  0.7751185834071848   F   F   F
  0.3788151827890422  0.8348979063326467  0.7932238184747045   T   T   T
  0.1179056170610622  0.3365154859573636  0.2924293763879078   F   F   F
  0.3861180370868145  0.6597859038300661  0.7979532460550385   T   T   T
  0.1223057105959384  0.1691045100118345  0.2894164905504084   F   F   F
  0.6206459342382118  0.1652930569152247  0.2030640906941699   F   F   F
  0.8855860450022348  0.6593749903338377  0.7048546058810743   F   F   F
  0.6177403585612566  0.3364180660162077  0.2067079346123535   F   F   F
  0.8765794747597084  0.8347871473963124  0.7028253355919958   F   F   F
  0.4377388036449948  0.7500447525691968  0.6712936484848344   T   T   T
  0.0665280407444442  0.2504470425016621  0.1588728488921234   F   F   F
  0.5645556189665797  0.2479573817140022  0.3337983969611358   F   F   F
  0.9287534144999015  0.7515005864185014  0.8359024295799458   F   F   F
  0.3105557890908521  0.8683012853621038  0.9530269002821296   T   T   T
  0.1821165850865114  0.3653894682599557  0.4597442814616244   F   F   F
  0.3177243523525789  0.6373005504857226  0.9615017562235162   T   T   T
  0.1877051242282590  0.1344703670007164  0.4526120673937797   F   F   F
  0.6906223393798285  0.1294402425146401  0.0444076422488209   F   F   F
  0.8137267226771883  0.6328994816105293  0.5441421069392050   F   F   F
  0.6845524116078110  0.3659946182933140  0.0436902448533871   F   F   F
  0.8055005711436252  0.8708038267005023  0.5442723589676035   F   F   F
  0.2485060763874361  0.8430492244511956  0.7819846313976372   T   T   T
  0.2482776400908691  0.3384751143455631  0.2940508855943733   F   F   F
  0.2562950010049169  0.6649466638561715  0.7895391392248717   T   T   T
  0.2529393265911324  0.1562871775448329  0.2840879437192854   F   F   F
  0.7510621665232691  0.1596115867181354  0.2145034364513805   F   F   F
  0.7555249387965262  0.6639334997052373  0.7158127942893557   F   F   F
  0.7479634246855937  0.3360898656584368  0.2121736015414371   F   F   F
  0.7462725649585451  0.8417126331382789  0.7148502892317126   F   F   F
  0.2844506006193193  0.7534148279819157  0.0461103902803102   T   T   T
  0.2172356796242454  0.2496284188398121  0.5393517004155370   F   F   F
  0.7093042434657590  0.2481663155049461  0.9622036977024564   F   F   F
  0.7942972189308080  0.7513231975469310  0.4609015584265705   F   F   F
  0.1887294706610315  0.8397714289979397  0.0031142574526925   T   T   T
  0.3062946197896679  0.3465410019493191  0.5118574732369439   F   F   F
  0.1951879386705801  0.6579409285757597  0.0142092457506091   T   T   T
  0.3096694477446675  0.1561121521065516  0.5118617030806121   F   F   F
  0.8101108637040042  0.1637914435004291  0.9860500675916910   F   F   F
  0.6929123795215517  0.6696605016814914  0.4925935632813960   F   F   F
  0.8062448346801716  0.3366665924852512  0.9914791106070879   F   F   F
  0.6886160972192599  0.8290511130366340  0.4814063222169409   F   F   F
  0.0968849815284332  0.7461569875815701  0.0383008490226539   T   T   T
  0.3982725593922609  0.2530474727178671  0.5471787075555241   F   F   F
  0.9072568478086964  0.2532978284297513  0.9619253827680581   F   F   F
  0.5872837763654299  0.7455504060476532  0.4500405852206297   T   T   T
  0.0683467892736200  0.8562102255237534  0.9348022734139247   T   T   T
  0.4262127446029496  0.3634992185609889  0.4426365878724496   F   F   F
  0.0771866011750847  0.6294276342866846  0.9459073671313579   T   T   T
  0.4266627836391450  0.1492970828241056  0.4291522301522761   F   F   F
  0.9275135876326885  0.1402384020402181  0.0619417363240302   F   F   F
  0.5760466935757927  0.6345345464709053  0.5582652595072397   T   T   T
  0.9239731090090899  0.3686363824358594  0.0587617462970158   F   F   F
  0.5736991493750440  0.8527456685440442  0.5657924364673562   T   T   T
  0.1200407513728230  0.8344735392102477  0.7530976270092575   T   T   T
  0.3761262934644662  0.3373585743842824  0.2606990216219103   F   F   F
  0.1273505890174378  0.6620368820605539  0.7664241101190385   T   T   T
  0.3796906615273983  0.1625823938784237  0.2423319042257077   F   F   F
  0.8790909889168077  0.1628039735761604  0.2461253697631491   F   F   F
  0.6264843987191986  0.6620908757105514  0.7402650073746260   T   T   T
  0.8764143967161786  0.3378253727498901  0.2408053456132322   F   F   F
  0.6193726118995815  0.8352457859562971  0.7526274446901122   T   T   T
  0.1991087016075049  0.7489374133161203  0.6631591887928374   T   T   T
  0.2990251524596701  0.2525197466252962  0.1641946201377209   F   F   F
  0.8025983455757597  0.2501129328049032  0.3381666924228384   F   F   F
  0.6993030177096031  0.7493781480862935  0.8405365562802700   F   F   F
  0.4257882959985153  0.0631200877235187  0.6841960696975846   F   F   F
  0.0727838176253514  0.5655700795245512  0.1969880055030342   T   T   T
  0.4269723200364623  0.4376707500233721  0.6970710641749847   F   F   F
  0.0747764423384005  0.9329826629781435  0.1862003868935632   T   T   T
  0.5731070162121453  0.9352841545955121  0.3104982901252779   T   T   T
  0.9273966072424216  0.4352512401277906  0.8077980639826876   F   F   F
  0.5745707441024015  0.5610942454885980  0.3065861664639417   T   T   T
  0.9252287840629592  0.0671305760812260  0.8103093289461540   F   F   F
  0.3209778071766536  0.0321505307863035  0.8387431159122301   F   F   F
  0.1772131343495117  0.5311192564513023  0.3482744690302265   T   T   T
  0.3225656094406588  0.4691970664577667  0.8493128648219539   F   F   F
  0.1781505906589219  0.9706516603528874  0.3404023307977031   T   T   T
  0.6787285798067302  0.9693753001917358  0.1584334140476287   F   F   F
  0.8223729918770246  0.4684696383413396  0.6557599819813191   F   F   F
  0.6780609553677337  0.5294746977815308  0.1547970256143003   F   F   F
  0.8199796084045303  0.0313261844507196  0.6578191282008348   F   F   F
  0.2775116750688014  0.0546209785447402  0.0561246842288838   F   F   F
  0.2235213319343141  0.5495051336304579  0.5675284756050504   T   T   T
  0.2767111911803894  0.4527763687271644  0.0687973184828579   F   F   F
  0.2199297538768777  0.9473501474846248  0.5586835191295828   T   T   T
  0.7212531054286231  0.9495809624016260  0.9401384056273585   F   F   F
  0.7767912836494162  0.4496717482141150  0.4363650357279596   F   F   F
  0.7234755773045691  0.5479733310745871  0.9349906262634420   F   F   F
  0.7786603976803121  0.0505866124916068  0.4383209460967734   F   F   F
  0.1220940393177941  0.0576387320505845  0.0466628560347502   F   F   F
  0.3791077864612458  0.5587091862990282  0.5545958617159003   T   T   T
  0.1213009935213876  0.4443108066953059  0.0539840000324148   F   F   F
  0.3756699896113872  0.9386643898660598  0.5463952981954771   T   T   T
  0.8764204766866044  0.9433070245068933  0.9500103664304334   F   F   F
  0.6213515494100506  0.4387361609842344  0.4483728766297475   F   F   F
  0.8793824198316642  0.5578342818313047  0.9484918813626280   F   F   F
  0.6230223843840861  0.0586621751685641  0.4496779581470420   F   F   F
  0.0744900423354409  0.0371558294415308  0.8240355958459489   F   F   F
  0.4250801481942914  0.5394187772985332  0.3316296009275682   T   T   T
  0.0759050018467065  0.4604811359825405  0.8289214250034220   F   F   F
  0.4233592809183940  0.9623833862785922  0.3240899967013759   T   T   T
  0.9251076834604746  0.9607688561368803  0.1724501356025385   F   F   F
  0.5770856735129541  0.4591424537481501  0.6719829705662974   F   F   F
  0.9234526734777830  0.5409479829046973  0.1747106620580823   F   F   F
  0.5761280339978185  0.0369550544652100  0.6718882752718400   F   F   F
  0.2010403318350455  0.0720122919566961  0.7103395896183073   F   F   F
  0.2972419006208575  0.5767117944922592  0.2204096917451359   T   T   T
  0.2044718955300979  0.4243853501249291  0.7181956721495482   F   F   F
  0.2971636721894658  0.9325207090318739  0.2092394335007810   T   T   T
  0.7983637488043769  0.9268941439739038  0.2860303849380870   F   F   F
  0.7036986004431114  0.4233110755154001  0.7848737779827530   F   F   F
  0.7951863158223418  0.5751116616583332  0.2862380460677585   F   F   F
  0.7008543197813992  0.0726939905854991  0.7868735139048368   F   F   F
  0.4259358472274488  0.8298051359795393  0.6955333879266071   T   T   T
  0.0742321574068967  0.3291227919459487  0.1909263067494535   F   F   F
  0.4293724819898886  0.6707198602254700  0.6977845838317617   T   T   T
  0.0753245184302571  0.1719642738565099  0.1909524077118263   F   F   F
  0.5745682647169943  0.1696553687426743  0.3025227942890467   F   F   F
  0.9264687810316445  0.6719379406026178  0.8081033673370115   F   F   F
  0.5735216497706617  0.3272426650101607  0.3071577223565143   F   F   F
  0.9223545805895981  0.8298808725804747  0.8026654484564517   F   F   F
  0.3140406093516756  0.8748247753287576  0.8323984333972594   T   T   T
  0.1823691470615358  0.3734492718300757  0.3387433502953030   F   F   F
  0.3184537685945704  0.6272574132636677  0.8412412113730230   T   T   T
  0.1851106991292824  0.1275475629615812  0.3319466640946231   F   F   F
  0.6860593882759431  0.1257703970196289  0.1653773742964333   F   F   F
  0.8176342921106823  0.6257445042058336  0.6649877157448714   F   F   F
  0.6837239486331228  0.3725208104472841  0.1646725697123799   F   F   F
  0.8114212397675828  0.8748321845265536  0.6650983202521203   F   F   F
  0.2653410162917107  0.8317030094319233  0.0366512170492999   T   T   T
  0.2302590746223316  0.3295435221428207  0.5410449599514280   F   F   F
  0.2713608243622273  0.6735699261494772  0.0445923584412346   T   T   T
  0.2327093871604049  0.1702119960996527  0.5377307600169772   F   F   F
  0.7322184470329631  0.1704461630360683  0.9604535265457841   F   F   F
  0.7705148943694624  0.6736830008558314  0.4619503025558487   F   F   F
  0.7292674700146691  0.3267689891922387  0.9617142478945340   F   F   F
  0.7672321771014339  0.8278412966383328  0.4589306655285910   F   F   F
  0.1114079963221348  0.8258932797502877  0.0265779519708318   T   T   T
  0.3838128441234261  0.3328167507032376  0.5348645897704642   F   F   F
  0.1169984571444379  0.6673300677650161  0.0350301496445613   T   T   T
  0.3871664783574928  0.1732929918343373  0.5284274486333729   F   F   F
  0.8885910724512129  0.1741791652206004  0.9687626447969251   F   F   F
  0.6151547115867149  0.6684348927471396  0.4654137208743134   T   T   T
  0.8845682660458465  0.3313365692362282  0.9688592303131571   F   F   F
  0.6097378026138562  0.8242908471272387  0.4666286282717509   T   T   T
  0.0672060312715778  0.8775804795132461  0.8173241058418241   T   T   T
  0.4296187918833070  0.3807904396791315  0.3235770832407638   F   F   F
  0.0719867575038878  0.6188027839087474  0.8254225996799522   T   T   T
  0.4298386864331647  0.1219448030402290  0.3147383788259859   F   F   F
  0.9313303583366448  0.1204255304898822  0.1797556592387366   F   F   F
  0.5737969492943906  0.6178691190251169  0.6774072300022348   T   T   T
  0.9294278456908103  0.3821823535097053  0.1786128344654685   F   F   F
  0.5702703218393855  0.8779822842524814  0.6813891972978495   T   T   T
  0.1916360141968044  0.8264384976034680  0.7002373468521150   T   T   T
  0.3043878125403197  0.3283029345053663  0.2088102140072223   F   F   F
  0.1968243473423655  0.6733897254025879  0.7090019203205266   T   T   T
  0.3062584209198889  0.1744276639114446  0.1973710375007229   F   F   F
  0.8075901907811343  0.1731066724234296  0.2981673193236105   F   F   F
  0.6967236563786159  0.6731212839246083  0.7969698192598074   F   F   F
  0.8056990289316843  0.3264431970004651  0.2949562906770211   F   F   F
  0.6921280280513002  0.8264513841877630  0.8014150331501497   F   F   F
  0.3139187670267726  0.7528738461383528  0.3326668228199510   T   T   T
  0.4128908909080509  0.7872942237221713  0.2630056528995062   T   T   T
  0.3683058568549479  0.7168596581038533  0.4674337509823756   T   T   T
  0.4676482252347695  0.7490148765509090  0.3985928855481703   T   T   T
  0.4531674256461057  0.7678924896414087  0.1303627604990321   T   T   T
  0.4785197556755837  0.7561107443889825  0.0483438144806803   T   T   T
  0.5011404873770718  0.7470013399066873 -0.0228369937025897   T   T   T
  0.4861605628325092  0.6792189667906063  0.3501130449300614   T   T   T
 
  0.00000000E+00  0.00000000E+00  0.00000000E+00
  0.00000000E+00  0.00000000E+00  0.00000000E+00
  0.00000000E+00  0.00000000E+00  0.00000000E+00
  0.00000000E+00  0.00000000E+00  0.00000000E+00
  0.00000000E+00  0.00000000E+00  0.00000000E+00
  0.00000000E+00  0.00000000E+00  0.00000000E+00
  0.00000000E+00  0.00000000E+00  0.00000000E+00
  0.00000000E+00  0.00000000E+00  0.00000000E+00
  0.00000000E+00  0.00000000E+00  0.00000000E+00
  0.00000000E+00  0.00000000E+00  0.00000000E+00
  0.00000000E+00  0.00000000E+00  0.00000000E+00
  0.00000000E+00  0.00000000E+00  0.00000000E+00
  0.00000000E+00  0.00000000E+00  0.00000000E+00
  0.00000000E+00  0.00000000E+00  0.00000000E+00
  0.00000000E+00  0.00000000E+00  0.00000000E+00
  0.00000000E+00  0.00000000E+00  0.00000000E+00
  0.00000000E+00  0.00000000E+00  0.00000000E+00
  0.00000000E+00  0.00000000E+00  0.00000000E+00
  0.00000000E+00  0.00000000E+00  0.00000000E+00
  0.00000000E+00  0.00000000E+00  0.00000000E+00
  0.00000000E+00  0.00000000E+00  0.00000000E+00
  0.00000000E+00  0.00000000E+00  0.00000000E+00
  0.00000000E+00  0.00000000E+00  0.00000000E+00
  0.00000000E+00  0.00000000E+00  0.00000000E+00
  0.00000000E+00  0.00000000E+00  0.00000000E+00
  0.00000000E+00  0.00000000E+00  0.00000000E+00
  0.00000000E+00  0.00000000E+00  0.00000000E+00
  0.00000000E+00  0.00000000E+00  0.00000000E+00
  0.00000000E+00  0.00000000E+00  0.00000000E+00
  0.00000000E+00  0.00000000E+00  0.00000000E+00
  0.00000000E+00  0.00000000E+00  0.00000000E+00
  0.00000000E+00  0.00000000E+00  0.00000000E+00
  0.00000000E+00  0.00000000E+00  0.00000000E+00
  0.00000000E+00  0.00000000E+00  0.00000000E+00
  0.00000000E+00  0.00000000E+00  0.00000000E+00
  0.00000000E+00  0.00000000E+00  0.00000000E+00
  0.00000000E+00  0.00000000E+00  0.00000000E+00
  0.00000000E+00  0.00000000E+00  0.00000000E+00
  0.00000000E+00  0.00000000E+00  0.00000000E+00
  0.00000000E+00  0.00000000E+00  0.00000000E+00
  0.00000000E+00  0.00000000E+00  0.00000000E+00
  0.00000000E+00  0.00000000E+00  0.00000000E+00
  0.00000000E+00  0.00000000E+00  0.00000000E+00
  0.00000000E+00  0.00000000E+00  0.00000000E+00
  0.00000000E+00  0.00000000E+00  0.00000000E+00
  0.00000000E+00  0.00000000E+00  0.00000000E+00
  0.00000000E+00  0.00000000E+00  0.00000000E+00
  0.00000000E+00  0.00000000E+00  0.00000000E+00
  0.00000000E+00  0.00000000E+00  0.00000000E+00
  0.00000000E+00  0.00000000E+00  0.00000000E+00
  0.00000000E+00  0.00000000E+00  0.00000000E+00
  0.00000000E+00  0.00000000E+00  0.00000000E+00
  0.00000000E+00  0.00000000E+00  0.00000000E+00
  0.00000000E+00  0.00000000E+00  0.00000000E+00
  0.00000000E+00  0.00000000E+00  0.00000000E+00
  0.00000000E+00  0.00000000E+00  0.00000000E+00
  0.00000000E+00  0.00000000E+00  0.00000000E+00
  0.00000000E+00  0.00000000E+00  0.00000000E+00
  0.00000000E+00  0.00000000E+00  0.00000000E+00
  0.00000000E+00  0.00000000E+00  0.00000000E+00
  0.00000000E+00  0.00000000E+00  0.00000000E+00
  0.00000000E+00  0.00000000E+00  0.00000000E+00
  0.00000000E+00  0.00000000E+00  0.00000000E+00
  0.00000000E+00  0.00000000E+00  0.00000000E+00
  0.00000000E+00  0.00000000E+00  0.00000000E+00
  0.00000000E+00  0.00000000E+00  0.00000000E+00
  0.00000000E+00  0.00000000E+00  0.00000000E+00
  0.00000000E+00  0.00000000E+00  0.00000000E+00
  0.00000000E+00  0.00000000E+00  0.00000000E+00
  0.00000000E+00  0.00000000E+00  0.00000000E+00
  0.00000000E+00  0.00000000E+00  0.00000000E+00
  0.00000000E+00  0.00000000E+00  0.00000000E+00
  0.00000000E+00  0.00000000E+00  0.00000000E+00
  0.00000000E+00  0.00000000E+00  0.00000000E+00
  0.00000000E+00  0.00000000E+00  0.00000000E+00
  0.00000000E+00  0.00000000E+00  0.00000000E+00
  0.00000000E+00  0.00000000E+00  0.00000000E+00
  0.00000000E+00  0.00000000E+00  0.00000000E+00
  0.00000000E+00  0.00000000E+00  0.00000000E+00
  0.00000000E+00  0.00000000E+00  0.00000000E+00
  0.00000000E+00  0.00000000E+00  0.00000000E+00
  0.00000000E+00  0.00000000E+00  0.00000000E+00
  0.00000000E+00  0.00000000E+00  0.00000000E+00
  0.00000000E+00  0.00000000E+00  0.00000000E+00
  0.00000000E+00  0.00000000E+00  0.00000000E+00
  0.00000000E+00  0.00000000E+00  0.00000000E+00
  0.00000000E+00  0.00000000E+00  0.00000000E+00
  0.00000000E+00  0.00000000E+00  0.00000000E+00
  0.00000000E+00  0.00000000E+00  0.00000000E+00
  0.00000000E+00  0.00000000E+00  0.00000000E+00
  0.00000000E+00  0.00000000E+00  0.00000000E+00
  0.00000000E+00  0.00000000E+00  0.00000000E+00
  0.00000000E+00  0.00000000E+00  0.00000000E+00
  0.00000000E+00  0.00000000E+00  0.00000000E+00
  0.00000000E+00  0.00000000E+00  0.00000000E+00
  0.00000000E+00  0.00000000E+00  0.00000000E+00
  0.00000000E+00  0.00000000E+00  0.00000000E+00
  0.00000000E+00  0.00000000E+00  0.00000000E+00
  0.00000000E+00  0.00000000E+00  0.00000000E+00
  0.00000000E+00  0.00000000E+00  0.00000000E+00
  0.00000000E+00  0.00000000E+00  0.00000000E+00
  0.00000000E+00  0.00000000E+00  0.00000000E+00
  0.00000000E+00  0.00000000E+00  0.00000000E+00
  0.00000000E+00  0.00000000E+00  0.00000000E+00
  0.00000000E+00  0.00000000E+00  0.00000000E+00
  0.00000000E+00  0.00000000E+00  0.00000000E+00
  0.00000000E+00  0.00000000E+00  0.00000000E+00
  0.00000000E+00  0.00000000E+00  0.00000000E+00
  0.00000000E+00  0.00000000E+00  0.00000000E+00
  0.00000000E+00  0.00000000E+00  0.00000000E+00
  0.00000000E+00  0.00000000E+00  0.00000000E+00
  0.00000000E+00  0.00000000E+00  0.00000000E+00
  0.00000000E+00  0.00000000E+00  0.00000000E+00
  0.00000000E+00  0.00000000E+00  0.00000000E+00
  0.00000000E+00  0.00000000E+00  0.00000000E+00
  0.00000000E+00  0.00000000E+00  0.00000000E+00
  0.00000000E+00  0.00000000E+00  0.00000000E+00
  0.00000000E+00  0.00000000E+00  0.00000000E+00
  0.00000000E+00  0.00000000E+00  0.00000000E+00
  0.00000000E+00  0.00000000E+00  0.00000000E+00
  0.00000000E+00  0.00000000E+00  0.00000000E+00
  0.00000000E+00  0.00000000E+00  0.00000000E+00
  0.00000000E+00  0.00000000E+00  0.00000000E+00
  0.00000000E+00  0.00000000E+00  0.00000000E+00
  0.00000000E+00  0.00000000E+00  0.00000000E+00
  0.00000000E+00  0.00000000E+00  0.00000000E+00
  0.00000000E+00  0.00000000E+00  0.00000000E+00
  0.00000000E+00  0.00000000E+00  0.00000000E+00
  0.00000000E+00  0.00000000E+00  0.00000000E+00
  0.00000000E+00  0.00000000E+00  0.00000000E+00
  0.00000000E+00  0.00000000E+00  0.00000000E+00
  0.00000000E+00  0.00000000E+00  0.00000000E+00
  0.00000000E+00  0.00000000E+00  0.00000000E+00
  0.00000000E+00  0.00000000E+00  0.00000000E+00
  0.00000000E+00  0.00000000E+00  0.00000000E+00
  0.00000000E+00  0.00000000E+00  0.00000000E+00
  0.00000000E+00  0.00000000E+00  0.00000000E+00
  0.00000000E+00  0.00000000E+00  0.00000000E+00
  0.00000000E+00  0.00000000E+00  0.00000000E+00
  0.00000000E+00  0.00000000E+00  0.00000000E+00
  0.00000000E+00  0.00000000E+00  0.00000000E+00
  0.00000000E+00  0.00000000E+00  0.00000000E+00
  0.00000000E+00  0.00000000E+00  0.00000000E+00
  0.00000000E+00  0.00000000E+00  0.00000000E+00
  0.00000000E+00  0.00000000E+00  0.00000000E+00
  0.00000000E+00  0.00000000E+00  0.00000000E+00
  0.00000000E+00  0.00000000E+00  0.00000000E+00
  0.00000000E+00  0.00000000E+00  0.00000000E+00
  0.00000000E+00  0.00000000E+00  0.00000000E+00
  0.00000000E+00  0.00000000E+00  0.00000000E+00
  0.00000000E+00  0.00000000E+00  0.00000000E+00
  0.00000000E+00  0.00000000E+00  0.00000000E+00
  0.00000000E+00  0.00000000E+00  0.00000000E+00
  0.00000000E+00  0.00000000E+00  0.00000000E+00
  0.00000000E+00  0.00000000E+00  0.00000000E+00
  0.00000000E+00  0.00000000E+00  0.00000000E+00
  0.00000000E+00  0.00000000E+00  0.00000000E+00
  0.00000000E+00  0.00000000E+00  0.00000000E+00
  0.00000000E+00  0.00000000E+00  0.00000000E+00
  0.00000000E+00  0.00000000E+00  0.00000000E+00
  0.00000000E+00  0.00000000E+00  0.00000000E+00
  0.00000000E+00  0.00000000E+00  0.00000000E+00
  0.00000000E+00  0.00000000E+00  0.00000000E+00
  0.00000000E+00  0.00000000E+00  0.00000000E+00