O  Si Ru C  H                           
   1.00000000000000     
    20.3096463179830877    0.0000000000000000    0.0000000000000000
     0.0000000000000000   19.8625212307842212    0.0000000000000000
     0.0000000000000000    0.0000000000000000   13.3711533343531652
   O    Si   Ru   C    H 
   192    96     3     1     4
Selective dynamics
Direct
  0.5029652238338187  0.0734819165272000  0.7055617037025499   F   F   F
  0.9967548506031960  0.5695661029614172  0.2110917680300872   F   F   F
  0.5028856803678394  0.4265388022457870  0.7056770758347497   F   F   F
  0.9968195330067147  0.9304753188944943  0.2110918034218443   F   F   F
  0.4973930428913818  0.9259024973720642  0.2924196161592576   F   F   F
  0.0035847913847533  0.4285933155542736  0.7896229201237048   F   F   F
  0.4972008031690294  0.5745195954923972  0.2920943578337614   F   F   F
  0.0035697286119003  0.0713312740883367  0.7894834808607243   F   F   F
  0.3888714655295544  0.0658706709306855  0.7984911683223146   F   F   F
  0.1128661028906421  0.5675496477688498  0.2981217166624575   F   F   F
  0.3888753979252968  0.4341169887931784  0.7984718209729920   F   F   F
  0.1127450891595601  0.9325397430044049  0.2979338928510771   F   F   F
  0.6108301289989768  0.9351556437652562  0.1987396683416947   F   F   F
  0.8876078011668085  0.4317449390498780  0.7020016196746468   F   F   F
  0.6109868225575070  0.5648646685302836  0.1985733682515374   F   F   F
  0.8876903109155236  0.0683211317559085  0.7020100818374502   F   F   F
  0.4000705220475567  0.1397702214017258  0.6347366308283000   F   F   F
  0.0950843284296568  0.6391827784105359  0.1333244750812881   F   F   F
  0.4001337749368048  0.3603504251347900  0.6347089101079888   F   F   F
  0.0950085773873326  0.8610042216616804  0.1333784314359150   F   F   F
  0.6031842108698982  0.8642423594512678  0.3644679123046046   F   F   F
  0.9035853549838890  0.3610350672554006  0.8675860015249341   F   F   F
  0.6031091657393830  0.6359638145430608  0.3642593720338141   F   F   F
  0.9037138714682840  0.1388549326949970  0.8674855352060433   F   F   F
  0.4053260622687915  0.0056451967302777  0.6213863002463000   F   F   F
  0.0957435848269625  0.5045506347184343  0.1236201279030240   F   F   F
  0.4052763526606213  0.4941992544993425  0.6215852007329232   F   F   F
  0.0957067015972157  0.9955161753217112  0.1235908787489208   F   F   F
  0.5938984646123231  0.9976170680339180  0.3730749758805274   F   F   F
  0.9056349502988184  0.4954044629948342  0.8755439543076520   F   F   F
  0.5937808879028310  0.5024217959665265  0.3730629658830651   F   F   F
  0.9056093393028135  0.0046919388188300  0.8753963384236414   F   F   F
  0.3233476353083446  0.0391743998217464  0.9645040600991592   F   F   F
  0.1757803021759727  0.5376359735539182  0.4650737312212954   F   F   F
  0.3235875839977780  0.4609051966932896  0.9642886577215961   F   F   F
  0.1755842456159158  0.9623988383848143  0.4651991937546498   F   F   F
  0.6780877659615641  0.9623723842273577  0.0349064701925599   F   F   F
  0.8237941650331848  0.4615163198791521  0.5348865266492524   F   F   F
  0.6781539960579153  0.5375875471813245  0.0348017061523720   F   F   F
  0.8238003433789345  0.0386053686700194  0.5349916103691896   F   F   F
  0.3182926621087958  0.9544069807435704  0.8069188035609329   F   F   F
  0.1790406867087242  0.4539892056671349  0.3064910170547464   F   F   F
  0.3184086654328055  0.5454323330519273  0.8073968266580707   F   F   F
  0.1790776642579317  0.0461478912630895  0.3067610852364240   F   F   F
  0.6820939117407363  0.0465839523209226  0.1920614900252460   F   F   F
  0.8213871159162878  0.5452912525881572  0.6930770684040866   F   F   F
  0.6820108041448734  0.4535425597154870  0.1922637396963793   F   F   F
  0.8213121035131010  0.9549893644192906  0.6931564988343908   F   F   F
  0.2577700857346841  0.0713203855107878  0.8011610468573878   F   F   F
  0.2445245571771508  0.5686152811679648  0.3044817190849116   F   F   F
  0.2578894773052980  0.4284671451305684  0.8013194615345256   F   F   F
  0.2446228206067218  0.9313922031027317  0.3041889440977812   F   F   F
  0.7421943174678276  0.9292371541764126  0.1996216778371220   F   F   F
  0.7561818528846018  0.4300860911593816  0.6967042596951458   F   F   F
  0.7419930693321390  0.5708154178401159  0.1995904407525018   F   F   F
  0.7563480601882233  0.0700314501997710  0.6966241456294995   F   F   F
  0.2919191280727915  0.1256903857867044  0.1068931632017822   F   F   F
  0.2081968317053722  0.6246957067994785  0.6068534742751694   F   F   F
  0.2919583662216141  0.3743720341168455  0.1068810347180218   F   F   F
  0.2079966229351626  0.8751884573557476  0.6074453531186137   F   F   F
  0.7092371286468051  0.8736814820981280  0.8948171582085749   F   F   F
  0.7911257496646229  0.3755097529367291  0.3928949442215384   F   F   F
  0.7091150111336546  0.6263780385089888  0.8950848062506864   F   F   F
  0.7910793520724511  0.1244677811767403  0.3927998050768338   F   F   F
  0.1999357314954722  0.0448086189608432  0.0275032811964664   F   F   F
  0.2989397137577114  0.5417185133484566  0.5300777723814960   F   F   F
  0.2000189529859497  0.4554334932537643  0.0276758928268563   F   F   F
  0.2989951110821920  0.9580999891275184  0.5299616124290338   F   F   F
  0.8015974106061208  0.9552419815224908  0.9710277123530062   F   F   F
  0.7008825544265207  0.4594008230480142  0.4689026078630789   F   F   F
  0.8013596054677308  0.5448005558439846  0.9709445064991726   F   F   F
  0.7009270103008731  0.0406041147319556  0.4690378010150056   F   F   F
  0.2934656428634383  0.9952078872837902  0.1461107799453387   F   F   F
  0.2041134964243980  0.4947143484566965  0.6474410492399514   F   F   F
  0.2937270245403880  0.5044974028990694  0.1459784854115895   F   F   F
  0.2038285594820977  0.0054581843474679  0.6476239764851925   F   F   F
  0.7073634975710306  0.0028192288190851  0.8520599223115752   F   F   F
  0.7971140283903821  0.5055411151543012  0.3530880472434959   F   F   F
  0.7073801762537215  0.4973874956142339  0.8519748282040140   F   F   F
  0.7970882347821018  0.9943686219935302  0.3530613192381580   F   F   F
  0.1084728315489443  0.1279036229661656  0.0976484185427395   F   F   F
  0.3881737672828649  0.6258297553921608  0.6046352023066817   F   F   F
  0.1085775425124638  0.3720541214691053  0.0978911546353913   F   F   F
  0.3881076553771834  0.8741892486349414  0.6044484495767932   F   F   F
  0.8933962315370039  0.8724674739771814  0.9011065075864693   F   F   F
  0.6104153359588622  0.3719523516081296  0.4052658231257098   F   F   F
  0.8936122614720148  0.6276061479689332  0.9009330728450209   F   F   F
  0.6105210594410266  0.1280743235778701  0.4055569050473267   F   F   F
  0.0807651024291900  0.0482408503743699  0.9452568140553410   F   F   F
  0.4165516800378910  0.5511628984593031  0.4446394644315532   F   F   F
  0.0810016668973788  0.4517552085505159  0.9455023607142650   F   F   F
  0.4164784723188291  0.9488631397608316  0.4448827237406761   F   F   F
  0.9201397414357686  0.9519520476248573  0.0541495587753005   F   F   F
  0.5830067683960323  0.4549013643522386  0.5545624461583714   F   F   F
  0.9201807448749690  0.5482155295154740  0.0542106498943653   F   F   F
  0.5830760378035080  0.0449875128271842  0.5546359887648862   F   F   F
  0.1300455697650023  0.0805431990827472  0.7672444390466779   F   F   F
  0.3706657331127658  0.5793220033182891  0.2603774694863432   F   F   F
  0.1303016663221470  0.4195276286596581  0.7672082649928456   F   F   F
  0.3706732541079916  0.9205856602326961  0.2605352069064324   F   F   F
  0.8698063443602990  0.9190626663218353  0.2317772328311705   F   F   F
  0.6289816877412946  0.4252530096887597  0.7355355881772070   F   F   F
  0.8698092195562666  0.5810838780131249  0.2317632133714724   F   F   F
  0.6289133398216151  0.0746459004237749  0.7356574191242160   F   F   F
  0.0773664211509555  0.9604576213097147  0.7944302356865407   F   F   F
  0.4267410260053168  0.4621761872006260  0.2973099434303776   F   F   F
  0.0770491230159749  0.5394307322258030  0.7946249932057867   F   F   F
  0.4268075335754418  0.0379724264111729  0.2972042924808989   F   F   F
  0.9213761144661277  0.0396657250879997  0.2053787196438961   F   F   F
  0.5684150787172300  0.5421385272141634  0.7036070043714915   F   F   F
  0.9213328774125955  0.4603022901953082  0.2053195780225607   F   F   F
  0.5683240667288771  0.9577501888205191  0.7040089774032694   F   F   F
  0.2140369771308954  0.1397089576292885  0.6474309548469677   F   F   F
  0.2809843739517959  0.6386429927015485  0.1473281385112060   F   F   F
  0.2141025452467105  0.3604179143381359  0.6474449060102003   F   F   F
  0.2812147684267572  0.8612392932104953  0.1472496555063856   F   F   F
  0.7862778497836800  0.8604126920393753  0.3514167409777755   F   F   F
  0.7123565367219484  0.3626185538589013  0.8521768962966405   F   F   F
  0.7859808092778025  0.6396918693788436  0.3516118266753452   F   F   F
  0.7122947757440983  0.1375162486183257  0.8520960120942220   F   F   F
  0.4982754837310921  0.8441608091253840  0.7070331363766797   F   F   F
  0.0027818112095730  0.3559248456706001  0.2144172238627036   F   F   F
  0.4984642416649621  0.6559351050392124  0.7070548514840951   F   F   F
  0.0027740500936488  0.1440903397749054  0.2144163696811674   F   F   F
  0.5034407544626660  0.1465169874448407  0.2909208377457659   F   F   F
  0.9984242867430453  0.6458720310457835  0.7813708745394408   F   F   F
  0.5033072356715067  0.3537523234543301  0.2908599510908161   F   F   F
  0.9986575188923226  0.8543340657931182  0.7817958985662585   F   F   F
  0.3845219070373176  0.8401068969801244  0.7979033037148398   F   F   F
  0.1197969106567598  0.3352595828563381  0.2891922146976782   F   F   F
  0.3846793344797703  0.6598653238672583  0.7980491856255227   F   F   F
  0.1198026163401451  0.1648018092131096  0.2889418206781400   F   F   F
  0.6199393605611974  0.1634056974061195  0.2128884173528860   F   F   F
  0.8809106806368447  0.6641968359671608  0.7094072528104149   F   F   F
  0.6198714663086520  0.3365550244333733  0.2129064715535804   F   F   F
  0.8809923087720577  0.8359817963999205  0.7094683261518711   F   F   F
  0.4102652698683400  0.7500839130878987  0.6549792389887656   F   F   F
  0.0730588325570167  0.2500781056812542  0.1531613183716587   F   F   F
  0.5770707664314401  0.2501344003295785  0.3502346160231511   F   F   F
  0.9266967970248743  0.7499739744858971  0.8453330078024521   F   F   F
  0.3150864189564047  0.8696047033743994  0.9572635620425558   F   F   F
  0.1828485364679082  0.3674834560073563  0.4556105930258241   F   F   F
  0.3152827893544199  0.6302676765686641  0.9587501593550272   F   F   F
  0.1828397804085782  0.1327251274307883  0.4558426745030459   F   F   F
  0.6823833187449395  0.1351631985831290  0.0449967136338927   F   F   F
  0.8167517320934792  0.6316507977857384  0.5440832193395266   F   F   F
  0.6824162565358236  0.3650268626810771  0.0448161675973822   F   F   F
  0.8170071991049639  0.8683146043328520  0.5439878964795284   F   F   F
  0.2541326176169889  0.8395561249909633  0.7868559433680318   F   F   F
  0.2500209406920817  0.3423498189261451  0.2901473023353560   F   F   F
  0.2541346354021528  0.6605554671707523  0.7869039884239157   F   F   F
  0.2501857910398684  0.1577269018918201  0.2901931667651567   F   F   F
  0.7504790691449728  0.1595613636519673  0.2098448787830094   F   F   F
  0.7506912584527186  0.6567386964444424  0.7102870190716715   F   F   F
  0.7504441429831132  0.3405613118471891  0.2097252460222236   F   F   F
  0.7508439929395294  0.8431827746503728  0.7102690274399848   F   F   F
  0.2879648831860280  0.7503525822598505  0.0292113924302626   F   F   F
  0.2021402426077543  0.2500517898277366  0.5431254368945133   F   F   F
  0.7053262973380541  0.2501311478371662  0.9515279329472293   F   F   F
  0.8013631579475202  0.7501296691437389  0.4571697762037630   F   F   F
  0.1920417427058538  0.8374057987096606  0.0064359176988233   F   F   F
  0.3033059519224039  0.3323912840969285  0.5083205175058367   F   F   F
  0.1925591722128246  0.6625437320827459  0.0060464334605612   F   F   F
  0.3032454810206460  0.1678068549547049  0.5082404937653848   F   F   F
  0.8036725243434191  0.1645664619111429  0.9889382557531405   F   F   F
  0.6982809450617964  0.6715963047341234  0.4909103347102786   F   F   F
  0.8036039305433960  0.3355679408528616  0.9890072981392066   F   F   F
  0.6984362084211639  0.8287699865880924  0.4911129918320256   F   F   F
  0.0931054031868115  0.7504386970323722  0.0252336188983762   F   F   F
  0.4062898077713584  0.2501678883460272  0.5241038465170718   F   F   F
  0.9044678733875813  0.2500102693887101  0.9752271778806332   F   F   F
  0.5946257291616988  0.7503529832309397  0.4631628046971983   F   F   F
  0.0765978141388288  0.8688348082525152  0.9377034816107681   F   F   F
  0.4187571814449953  0.3702466582395871  0.4393549368667422   F   F   F
  0.0762989537260026  0.6314002402924572  0.9373812823584231   F   F   F
  0.4187620013766065  0.1299150269954907  0.4393923469907364   F   F   F
  0.9191000392898943  0.1316668128367056  0.0637245169213188   F   F   F
  0.5832175377291833  0.6328783922728221  0.5615438774693757   F   F   F
  0.9190585566282934  0.3682343973137421  0.0637792853109929   F   F   F
  0.5834022129750664  0.8675016347766942  0.5612095883993362   F   F   F
  0.1257273463580688  0.8401682973861995  0.7556055412965677   F   F   F
  0.3774513386149607  0.3423745643998188  0.2526050536711679   F   F   F
  0.1257283720437385  0.6598131405446637  0.7552229105682642   F   F   F
  0.3775492466538424  0.1578401339366948  0.2526936445096197   F   F   F
  0.8772953270703994  0.1609965946752610  0.2500525081926455   F   F   F
  0.6241825492863811  0.6590415811805101  0.7486049114015998   F   F   F
  0.8773837727499227  0.3391094067135256  0.2499901079472124   F   F   F
  0.6241244993819350  0.8411923158716021  0.7489808561047298   F   F   F
  0.2003676673292389  0.7500942924622791  0.6645008539753334   F   F   F
  0.3014479251150419  0.2501072685351957  0.1691022010304906   F   F   F
  0.7992603639167015  0.2499193014868411  0.3360094499252426   F   F   F
  0.7013620205855844  0.7500326084867197  0.8315233973836413   F   F   F
  0.4241898217702271  0.0710281326726516  0.6893279423367034   F   F   F
  0.0751692661578645  0.5695667112426293  0.1902475610700307   F   F   F
  0.4241569076981619  0.4292051900595837  0.6891417960212394   F   F   F
  0.0752458415831256  0.9305102199984461  0.1903836560097218   F   F   F
  0.5756957146503581  0.9314224966209750  0.3078879743789216   F   F   F
  0.9250319589722835  0.4296564393885376  0.8095369620640014   F   F   F
  0.5757089551583547  0.5686245550368199  0.3080444125656214   F   F   F
  0.9250126280824631  0.0703249120968579  0.8096769968767603   F   F   F
  0.3222887758847577  0.0330646106321097  0.8440206237485697   F   F   F
  0.1779953959272191  0.5319368957739314  0.3443504254645688   F   F   F
  0.3221184067280234  0.4672864270510715  0.8437255222640019   F   F   F
  0.1782222904530499  0.9680647776315041  0.3443673559843035   F   F   F
  0.6784949427095555  0.9684702301156562  0.1553503163221919   F   F   F
  0.8222633339014536  0.4672170497365755  0.6559280722371241   F   F   F
  0.6783001327526250  0.5316537267294734  0.1556765866910013   F   F   F
  0.8221990539524597  0.0328419134593005  0.6559676230009188   F   F   F
  0.2767238803785617  0.0512139397389717  0.0619848950482620   F   F   F
  0.2223563935507258  0.5499012962269418  0.5630704426924069   F   F   F
  0.2768204395352925  0.4487574750764267  0.0621964242172339   F   F   F
  0.2221165112716150  0.9503155348953527  0.5624378804499131   F   F   F
  0.7245726803046395  0.9483750888417219  0.9380310080639873   F   F   F
  0.7777736996554623  0.4505129414989142  0.4369400246633788   F   F   F
  0.7245926420807720  0.5516615843233765  0.9378996107462996   F   F   F
  0.7778330152223276  0.0496723597218889  0.4368855419010060   F   F   F
  0.1218908192210861  0.0541258865120753  0.0488136017345369   F   F   F
  0.3769235185781454  0.5530948924365333  0.5492595938092180   F   F   F
  0.1216263792347902  0.4461563988792179  0.0491811604175254   F   F   F
  0.3769478930510530  0.9475034588634017  0.5492319409080793   F   F   F
  0.8798199778808353  0.9458821616250574  0.9498824726653083   F   F   F
  0.6225689883815377  0.4468120948993928  0.4506743818477545   F   F   F
  0.8799365851250371  0.5541068098456066  0.9498963520572445   F   F   F
  0.6225550883371298  0.0531527911289160  0.4506808268877336   F   F   F
  0.0731514175765540  0.0397641855764306  0.8251454310206228   F   F   F
  0.4275131365715481  0.5417629010887453  0.3257933522657126   F   F   F
  0.0731132306311792  0.4605630445945366  0.8252603193374313   F   F   F
  0.4271715761013297  0.9581895304814623  0.3254664466125732   F   F   F
  0.9268565890243252  0.9607581670041654  0.1743743134082010   F   F   F
  0.5711744680627930  0.4628677221864592  0.6739103271395095   F   F   F
  0.9271394882716777  0.5394106948229620  0.1746203961047996   F   F   F
  0.5712034214780815  0.0373986206529722  0.6740617554603858   F   F   F
  0.2016319092954149  0.0732157942404257  0.7148240213015669   F   F   F
  0.2974335980111178  0.5730744882395342  0.2131271164814521   F   F   F
  0.2014450097311169  0.4269860164990575  0.7146379187690002   F   F   F
  0.2972776556394976  0.9271734315767759  0.2130026278697130   F   F   F
  0.7987209474073680  0.9267229760827504  0.2850815452424129   F   F   F
  0.7013087862833203  0.4295348462271420  0.7849830658309287   F   F   F
  0.7988004822255519  0.5731655572150203  0.2853415537220982   F   F   F
  0.7013298632447800  0.0707399004493325  0.7852533627408249   F   F   F
  0.4218399366192642  0.8281170677396190  0.6910316076811469   F   F   F
  0.0758489031807343  0.3284913923123085  0.1880541626020218   F   F   F
  0.4214370199095114  0.6715364442701173  0.6906966345468319   F   F   F
  0.0759611801140494  0.1716348490108217  0.1881368173121416   F   F   F
  0.5773494149674505  0.1719871027134730  0.3153697698167832   F   F   F
  0.9251961584625192  0.6718279811196339  0.8099073914439501   F   F   F
  0.5772208062282971  0.3282818021356348  0.3154142648877212   F   F   F
  0.9251630781374800  0.8282582402886547  0.8102219994820530   F   F   F
  0.3177840355140376  0.8757951971353393  0.8369142970893506   F   F   F
  0.1830566075941960  0.3742683794134010  0.3348192524765921   F   F   F
  0.3177547769115066  0.6243416209893624  0.8359815944413000   F   F   F
  0.1830703524130897  0.1254362634524853  0.3347600337939127   F   F   F
  0.6835756963877131  0.1263290378620212  0.1653206051728446   F   F   F
  0.8176585538697765  0.6246924610413700  0.6646741255465400   F   F   F
  0.6834445391236343  0.3736736187620906  0.1654682833284298   F   F   F
  0.8177521919857540  0.8752059602823437  0.6646213652220965   F   F   F
  0.2695431071154033  0.8281951269044967  0.0381303637825923   F   F   F
  0.2261517041396672  0.3277154190204783  0.5389793799693052   F   F   F
  0.2691702279060380  0.6712761598008683  0.0379852377130163   F   F   F
  0.2261803311039259  0.1724327778736097  0.5389464699044737   F   F   F
  0.7263156311972452  0.1718524265924302  0.9590972389661871   F   F   F
  0.7752836840940773  0.6732242325626743  0.4603507326317811   F   F   F
  0.7263988614005044  0.3282008322616221  0.9591380378702539   F   F   F
  0.7754704321464203  0.8269019014698245  0.4605405386089387   F   F   F
  0.1143463322460860  0.8286060033517089  0.0263811359241970   F   F   F
  0.3822162176843733  0.3279476722037700  0.5267610735341748   F   F   F
  0.1139755671504830  0.6712449733691557  0.0261685951895458   F   F   F
  0.3821228225575339  0.1720991415102091  0.5269069763024206   F   F   F
  0.8823874429269694  0.1715417165419666  0.9735115257228557   F   F   F
  0.6197720716845367  0.6717320512424791  0.4704986983658586   F   F   F
  0.8824489388522707  0.3285864681013706  0.9736194859152079   F   F   F
  0.6201907671631659  0.8288203344975784  0.4710190904327263   F   F   F
  0.0699966696180425  0.8808600190818368  0.8177061857034147   F   F   F
  0.4311417378197149  0.3819004523323457  0.3202143321589119   F   F   F
  0.0698789150209578  0.6191362185939155  0.8177098709300807   F   F   F
  0.4311313217349664  0.1180182067331259  0.3203581896560692   F   F   F
  0.9298307093403082  0.1192999978212086  0.1830310791651399   F   F   F
  0.5692923673821824  0.6220947505962187  0.6801899482267615   F   F   F
  0.9297850315477518  0.3808040024741501  0.1828637983152674   F   F   F
  0.5691678687638060  0.8779581041546791  0.6805123113639979   F   F   F
  0.1967375921580583  0.8273975527317532  0.7033835431684281   F   F   F
  0.3053913663083208  0.3279690204067691  0.2048148730459403   F   F   F
  0.1969581786917587  0.6724551097269966  0.7038246544405808   F   F   F
  0.3053188187923581  0.1720554204651563  0.2046434940896162   F   F   F
  0.8046087191506146  0.1728132154693469  0.2971478334381459   F   F   F
  0.6964813254476283  0.6722170052775027  0.7960929749682322   F   F   F
  0.8046209654421119  0.3272817872937992  0.2971696689616152   F   F   F
  0.6963623595256934  0.8278806983718994  0.7961976657515208   F   F   F
  0.4918137009534007  0.7514426504509686  0.3536859453085981   F   F   F
  0.3831658580240074  0.7503449165811134  0.2882180777076186   F   F   F
  0.3891313759022310  0.7501241001006846  0.4589239281804893   F   F   F
  0.4723991276760415  0.7509934523385837  0.2036406521297209   T   T   T
  0.4949926755043847  0.7028982497543552  0.1730759046555050   T   T   T
  0.4888326470231164  0.7971093815947370  0.1683631133760528   T   T   T
  0.4108967954412890  0.7441387890862075  0.1569779365160358   T   T   T
  0.3431078950175461  0.7474717482144371  0.1730856150340358   T   T   T
 
  0.00000000E+00  0.00000000E+00  0.00000000E+00
  0.00000000E+00  0.00000000E+00  0.00000000E+00
  0.00000000E+00  0.00000000E+00  0.00000000E+00
  0.00000000E+00  0.00000000E+00  0.00000000E+00
  0.00000000E+00  0.00000000E+00  0.00000000E+00
  0.00000000E+00  0.00000000E+00  0.00000000E+00
  0.00000000E+00  0.00000000E+00  0.00000000E+00
  0.00000000E+00  0.00000000E+00  0.00000000E+00
  0.00000000E+00  0.00000000E+00  0.00000000E+00
  0.00000000E+00  0.00000000E+00  0.00000000E+00
  0.00000000E+00  0.00000000E+00  0.00000000E+00
  0.00000000E+00  0.00000000E+00  0.00000000E+00
  0.00000000E+00  0.00000000E+00  0.00000000E+00
  0.00000000E+00  0.00000000E+00  0.00000000E+00
  0.00000000E+00  0.00000000E+00  0.00000000E+00
  0.00000000E+00  0.00000000E+00  0.00000000E+00
  0.00000000E+00  0.00000000E+00  0.00000000E+00
  0.00000000E+00  0.00000000E+00  0.00000000E+00
  0.00000000E+00  0.00000000E+00  0.00000000E+00
  0.00000000E+00  0.00000000E+00  0.00000000E+00
  0.00000000E+00  0.00000000E+00  0.00000000E+00
  0.00000000E+00  0.00000000E+00  0.00000000E+00
  0.00000000E+00  0.00000000E+00  0.00000000E+00
  0.00000000E+00  0.00000000E+00  0.00000000E+00
  0.00000000E+00  0.00000000E+00  0.00000000E+00
  0.00000000E+00  0.00000000E+00  0.00000000E+00
  0.00000000E+00  0.00000000E+00  0.00000000E+00
  0.00000000E+00  0.00000000E+00  0.00000000E+00
  0.00000000E+00  0.00000000E+00  0.00000000E+00
  0.00000000E+00  0.00000000E+00  0.00000000E+00
  0.00000000E+00  0.00000000E+00  0.00000000E+00
  0.00000000E+00  0.00000000E+00  0.00000000E+00
  0.00000000E+00  0.00000000E+00  0.00000000E+00
  0.00000000E+00  0.00000000E+00  0.00000000E+00
  0.00000000E+00  0.00000000E+00  0.00000000E+00
  0.00000000E+00  0.00000000E+00  0.00000000E+00
  0.00000000E+00  0.00000000E+00  0.00000000E+00
  0.00000000E+00  0.00000000E+00  0.00000000E+00
  0.00000000E+00  0.00000000E+00  0.00000000E+00
  0.00000000E+00  0.00000000E+00  0.00000000E+00
  0.00000000E+00  0.00000000E+00  0.00000000E+00
  0.00000000E+00  0.00000000E+00  0.00000000E+00
  0.00000000E+00  0.00000000E+00  0.00000000E+00
  0.00000000E+00  0.00000000E+00  0.00000000E+00
  0.00000000E+00  0.00000000E+00  0.00000000E+00
  0.00000000E+00  0.00000000E+00  0.00000000E+00
  0.00000000E+00  0.00000000E+00  0.00000000E+00
  0.00000000E+00  0.00000000E+00  0.00000000E+00
  0.00000000E+00  0.00000000E+00  0.00000000E+00
  0.00000000E+00  0.00000000E+00  0.00000000E+00
  0.00000000E+00  0.00000000E+00  0.00000000E+00
  0.00000000E+00  0.00000000E+00  0.00000000E+00
  0.00000000E+00  0.00000000E+00  0.00000000E+00
  0.00000000E+00  0.00000000E+00  0.00000000E+00
  0.00000000E+00  0.00000000E+00  0.00000000E+00
  0.00000000E+00  0.00000000E+00  0.00000000E+00
  0.00000000E+00  0.00000000E+00  0.00000000E+00
  0.00000000E+00  0.00000000E+00  0.00000000E+00
  0.00000000E+00  0.00000000E+00  0.00000000E+00
  0.00000000E+00  0.00000000E+00  0.00000000E+00
  0.00000000E+00  0.00000000E+00  0.00000000E+00
  0.00000000E+00  0.00000000E+00  0.00000000E+00
  0.00000000E+00  0.00000000E+00  0.00000000E+00
  0.00000000E+00  0.00000000E+00  0.00000000E+00
  0.00000000E+00  0.00000000E+00  0.00000000E+00
  0.00000000E+00  0.00000000E+00  0.00000000E+00
  0.00000000E+00  0.00000000E+00  0.00000000E+00
  0.00000000E+00  0.00000000E+00  0.00000000E+00
  0.00000000E+00  0.00000000E+00  0.00000000E+00
  0.00000000E+00  0.00000000E+00  0.00000000E+00
  0.00000000E+00  0.00000000E+00  0.00000000E+00
  0.00000000E+00  0.00000000E+00  0.00000000E+00
  0.00000000E+00  0.00000000E+00  0.00000000E+00
  0.00000000E+00  0.00000000E+00  0.00000000E+00
  0.00000000E+00  0.00000000E+00  0.00000000E+00
  0.00000000E+00  0.00000000E+00  0.00000000E+00
  0.00000000E+00  0.00000000E+00  0.00000000E+00
  0.00000000E+00  0.00000000E+00  0.00000000E+00
  0.00000000E+00  0.00000000E+00  0.00000000E+00
  0.00000000E+00  0.00000000E+00  0.00000000E+00
  0.00000000E+00  0.00000000E+00  0.00000000E+00
  0.00000000E+00  0.00000000E+00  0.00000000E+00
  0.00000000E+00  0.00000000E+00  0.00000000E+00
  0.00000000E+00  0.00000000E+00  0.00000000E+00
  0.00000000E+00  0.00000000E+00  0.00000000E+00
  0.00000000E+00  0.00000000E+00  0.00000000E+00
  0.00000000E+00  0.00000000E+00  0.00000000E+00
  0.00000000E+00  0.00000000E+00  0.00000000E+00
  0.00000000E+00  0.00000000E+00  0.00000000E+00
  0.00000000E+00  0.00000000E+00  0.00000000E+00
  0.00000000E+00  0.00000000E+00  0.00000000E+00
  0.00000000E+00  0.00000000E+00  0.00000000E+00
  0.00000000E+00  0.00000000E+00  0.00000000E+00
  0.00000000E+00  0.00000000E+00  0.00000000E+00
  0.00000000E+00  0.00000000E+00  0.00000000E+00
  0.00000000E+00  0.00000000E+00  0.00000000E+00
  0.00000000E+00  0.00000000E+00  0.00000000E+00
  0.00000000E+00  0.00000000E+00  0.00000000E+00
  0.00000000E+00  0.00000000E+00  0.00000000E+00
  0.00000000E+00  0.00000000E+00  0.00000000E+00
  0.00000000E+00  0.00000000E+00  0.00000000E+00
  0.00000000E+00  0.00000000E+00  0.00000000E+00
  0.00000000E+00  0.00000000E+00  0.00000000E+00
  0.00000000E+00  0.00000000E+00  0.00000000E+00
  0.00000000E+00  0.00000000E+00  0.00000000E+00
  0.00000000E+00  0.00000000E+00  0.00000000E+00
  0.00000000E+00  0.00000000E+00  0.00000000E+00
  0.00000000E+00  0.00000000E+00  0.00000000E+00
  0.00000000E+00  0.00000000E+00  0.00000000E+00
  0.00000000E+00  0.00000000E+00  0.00000000E+00
  0.00000000E+00  0.00000000E+00  0.00000000E+00
  0.00000000E+00  0.00000000E+00  0.00000000E+00
  0.00000000E+00  0.00000000E+00  0.00000000E+00
  0.00000000E+00  0.00000000E+00  0.00000000E+00
  0.00000000E+00  0.00000000E+00  0.00000000E+00
  0.00000000E+00  0.00000000E+00  0.00000000E+00
  0.00000000E+00  0.00000000E+00  0.00000000E+00
  0.00000000E+00  0.00000000E+00  0.00000000E+00
  0.00000000E+00  0.00000000E+00  0.00000000E+00
  0.00000000E+00  0.00000000E+00  0.00000000E+00
  0.00000000E+00  0.00000000E+00  0.00000000E+00
  0.00000000E+00  0.00000000E+00  0.00000000E+00
  0.00000000E+00  0.00000000E+00  0.00000000E+00
  0.00000000E+00  0.00000000E+00  0.00000000E+00
  0.00000000E+00  0.00000000E+00  0.00000000E+00
  0.00000000E+00  0.00000000E+00  0.00000000E+00
  0.00000000E+00  0.00000000E+00  0.00000000E+00
  0.00000000E+00  0.00000000E+00  0.00000000E+00
  0.00000000E+00  0.00000000E+00  0.00000000E+00
  0.00000000E+00  0.00000000E+00  0.00000000E+00
  0.00000000E+00  0.00000000E+00  0.00000000E+00
  0.00000000E+00  0.00000000E+00  0.00000000E+00
  0.00000000E+00  0.00000000E+00  0.00000000E+00
  0.00000000E+00  0.00000000E+00  0.00000000E+00
  0.00000000E+00  0.00000000E+00  0.00000000E+00
  0.00000000E+00  0.00000000E+00  0.00000000E+00
  0.00000000E+00  0.00000000E+00  0.00000000E+00
  0.00000000E+00  0.00000000E+00  0.00000000E+00
  0.00000000E+00  0.00000000E+00  0.00000000E+00
  0.00000000E+00  0.00000000E+00  0.00000000E+00
  0.00000000E+00  0.00000000E+00  0.00000000E+00
  0.00000000E+00  0.00000000E+00  0.00000000E+00
  0.00000000E+00  0.00000000E+00  0.00000000E+00
  0.00000000E+00  0.00000000E+00  0.00000000E+00
  0.00000000E+00  0.00000000E+00  0.00000000E+00
  0.00000000E+00  0.00000000E+00  0.00000000E+00
  0.00000000E+00  0.00000000E+00  0.00000000E+00
  0.00000000E+00  0.00000000E+00  0.00000000E+00
  0.00000000E+00  0.00000000E+00  0.00000000E+00
  0.00000000E+00  0.00000000E+00  0.00000000E+00
  0.00000000E+00  0.00000000E+00  0.00000000E+00
  0.00000000E+00  0.00000000E+00  0.00000000E+00
  0.00000000E+00  0.00000000E+00  0.00000000E+00
  0.00000000E+00  0.00000000E+00  0.00000000E+00
  0.00000000E+00  0.00000000E+00  0.00000000E+00
  0.00000000E+00  0.00000000E+00  0.00000000E+00
  0.00000000E+00  0.00000000E+00  0.00000000E+00
  0.00000000E+00  0.00000000E+00  0.00000000E+00
  0.00000000E+00  0.00000000E+00  0.00000000E+00
  0.00000000E+00  0.00000000E+00  0.00000000E+00
  0.00000000E+00  0.00000000E+00  0.00000000E+00
  0.00000000E+00  0.00000000E+00  0.00000000E+00
  0.00000000E+00  0.00000000E+00  0.00000000E+00
  0.00000000E+00  0.00000000E+00  0.00000000E+00