O  Si Ru C  H                           
   1.00000000000000     
    20.3096463179830877    0.0000000000000000    0.0000000000000000
     0.0000000000000000   19.8625212307842212    0.0000000000000000
     0.0000000000000000    0.0000000000000000   13.3711533343531652
   O    Si   Ru   C    H 
   192    96     4     2     2
Selective dynamics
Direct
  0.5025120649601007  0.0547205133743418  0.7109723124734799   F   F   F
  0.9940521867488954  0.5687905374484217  0.2137366455049019   F   F   F
  0.5056736674946691  0.4360482008307116  0.7142205123148173   F   F   F
  0.9961751262498169  0.9371711058302523  0.2110981599813968   F   F   F
  0.4954419150227878  0.9432687661601022  0.2847854422463598   F   F   F
  0.0062802483636446  0.4304842562305069  0.7908483165193374   F   F   F
  0.4955298845297165  0.5645215438185645  0.2920093424891022   F   F   F
  0.0028546577289177  0.0604826351991932  0.7849506518938867   F   F   F
  0.3860220935793421  0.0661560640784842  0.7898328634809602   F   F   F
  0.1082445567246779  0.5613889840187838  0.3063488557137717   F   F   F
  0.3917614379749068  0.4398735381406524  0.8065626411547342   F   F   F
  0.1142133541777284  0.9334633169003297  0.2922617927966513   F   F   F
  0.6127778180495724  0.9353685829727780  0.2051272499889052   F   F   F
  0.8920925256880921  0.4399112354160266  0.6987958307834248   F   F   F
  0.6082652084185796  0.5578279993992794  0.1964246464683086   F   F   F
  0.8855188073629989  0.0660114535387564  0.7052263528873510   F   F   F
  0.4152479726576743  0.1339075258561593  0.6252802121456185   F   F   F
  0.0971883748087734  0.6338786764322464  0.1411896776354027   F   F   F
  0.4043851928067355  0.3703720380910127  0.6378308605491654   F   F   F
  0.0900028435097227  0.8623376347594700  0.1298146942783802   F   F   F
  0.5889796496929094  0.8657371478708029  0.3673374553675615   F   F   F
  0.9013340536218024  0.3678653953308810  0.8633967146045123   F   F   F
  0.6043368717459074  0.6268765006424530  0.3637819972357690   F   F   F
  0.9114480150973634  0.1384740403983642  0.8653579893591683   F   F   F
  0.4008100409764666  0.0006426084645028  0.6162848371772398   F   F   F
  0.0915343339853791  0.4996125700984351  0.1308548788773720   F   F   F
  0.4065037596105157  0.5059326754866049  0.6356515755316821   F   F   F
  0.0963390374253805  0.9967341731405384  0.1173047077138918   F   F   F
  0.5960773866189939  0.9973229788142461  0.3808600337721941   F   F   F
  0.9106177466517167  0.5014570889821712  0.8741560957862404   F   F   F
  0.5930056060330102  0.4936998352057316  0.3717560814404592   F   F   F
  0.9022906322544415  0.0052710951298209  0.8816295871106377   F   F   F
  0.3237434940200572  0.0389026841514877  0.9594765736522888   F   F   F
  0.1783288470482631  0.5367522941148621  0.4689729057866359   F   F   F
  0.3222522501977920  0.4628042056307748  0.9705841748559365   F   F   F
  0.1748878179052866  0.9639435157685838  0.4611723062290025   F   F   F
  0.6756286595644738  0.9645143295740226  0.0375026392754449   F   F   F
  0.8222660475012376  0.4623886953451120  0.5349388094936742   F   F   F
  0.6788338644752372  0.5351185201601751  0.0335245677086604   F   F   F
  0.8234581027651870  0.0363514098660787  0.5371844658395162   F   F   F
  0.3191170097592888  0.9536679431793758  0.8031777797765258   F   F   F
  0.1830510267156171  0.4532368868564092  0.3109877904584550   F   F   F
  0.3146959283923039  0.5477483805546797  0.8146346764042107   F   F   F
  0.1762802180382153  0.0487885844146305  0.3035349037793651   F   F   F
  0.6819883861175953  0.0469942556560454  0.1975350859042635   F   F   F
  0.8144174603692562  0.5461928630282031  0.6928786448591993   F   F   F
  0.6857608723429536  0.4517540531083384  0.1930672027257643   F   F   F
  0.8172254400721357  0.9536042050894267  0.6965946570294221   F   F   F
  0.2548039940191984  0.0696111857165036  0.7997576117381655   F   F   F
  0.2390952038462117  0.5732042552589931  0.3029494929483647   F   F   F
  0.2614055266503215  0.4267404684049509  0.8028370209126408   F   F   F
  0.2457116259284504  0.9365709911090931  0.3025279552717706   F   F   F
  0.7445363716818889  0.9306241400902024  0.1966979613897735   F   F   F
  0.7613234811202574  0.4255460245908438  0.7003355718683864   F   F   F
  0.7395871720488429  0.5725421128951353  0.1996547852740349   F   F   F
  0.7540911409552962  0.0693212738033608  0.6959216142175393   F   F   F
  0.2936673029316594  0.1295955022176969  0.0978809712467950   F   F   F
  0.2048988572873256  0.6216494854826848  0.6150936134510516   F   F   F
  0.2932039122139898  0.3796057682238612  0.1160933311541541   F   F   F
  0.1977485146693923  0.8748002186990291  0.6032630785118442   F   F   F
  0.7029023160127821  0.8755221713375079  0.8967344148662519   F   F   F
  0.7956868006894382  0.3772047604405273  0.3886429640824076   F   F   F
  0.7053747662881733  0.6216582165872779  0.8898028091621839   F   F   F
  0.7979636595696391  0.1240280308529691  0.3937138575202326   F   F   F
  0.2003497896571389  0.0478799300340071  0.0250300423465788   F   F   F
  0.3008120873834059  0.5481203474611078  0.5355796175648564   F   F   F
  0.1995533396158180  0.4572325675743159  0.0359034434349752   F   F   F
  0.2971383113338604  0.9466569738263004  0.5273306412847987   F   F   F
  0.7986731534931479  0.9528489624879626  0.9727192341825557   F   F   F
  0.6996766365388325  0.4514179539934204  0.4692796518726041   F   F   F
  0.8014555561124581  0.5441259077611207  0.9648042453380157   F   F   F
  0.7016296138691231  0.0482248458552590  0.4698679918598074   F   F   F
  0.2950763302096178  0.0008241961373301  0.1438608354007016   F   F   F
  0.2089146385425309  0.4909741678253141  0.6477571113309537   F   F   F
  0.2937707100501683  0.5104914067273612  0.1488365124333484   F   F   F
  0.2069535689289737  0.0051700383869075  0.6422992496452835   F   F   F
  0.7060659021089393  0.0055873743614825  0.8554930695915175   F   F   F
  0.7916672011713217  0.5083841651870031  0.3555364015825404   F   F   F
  0.7060955198277483  0.4905420020621563  0.8528348733938742   F   F   F
  0.7943965459359319  0.9934930828261344  0.3550425761323126   F   F   F
  0.1092908446300029  0.1305078315450174  0.0993990484327796   F   F   F
  0.3922374155128523  0.6359188817885908  0.5991414430439619   F   F   F
  0.1099512076024567  0.3690769506998066  0.0992035370718014   F   F   F
  0.3907162106079269  0.8671764664176180  0.6012875431680911   F   F   F
  0.8885136083267327  0.8715397874465793  0.8941172136251794   F   F   F
  0.6101648361992815  0.3634528489653093  0.4018776873643546   F   F   F
  0.8908024945131530  0.6324049922580173  0.9000828525282500   F   F   F
  0.6103864692323739  0.1308075102539590  0.3950583909756631   F   F   F
  0.0815847468673283  0.0548806647659319  0.9420034601891913   F   F   F
  0.4206792083271935  0.5482826956669626  0.4530028269817947   F   F   F
  0.0819223897279926  0.4508716762091680  0.9492523174133183   F   F   F
  0.4156354637285560  0.9421760401562054  0.4412553081615016   F   F   F
  0.9172558960401318  0.9437550935323245  0.0543018158759381   F   F   F
  0.5810151427657502  0.4444833333648290  0.5530629704971801   F   F   F
  0.9170341016413914  0.5537133853965486  0.0551139750003884   F   F   F
  0.5834924584137298  0.0581455931781747  0.5550218333885582   F   F   F
  0.1284722622505257  0.0777495908774171  0.7589945794640229   F   F   F
  0.3676977897823477  0.5805461242573244  0.2730198079757997   F   F   F
  0.1333155680470171  0.4194902684110957  0.7721580311625331   F   F   F
  0.3701796981947467  0.9227207665080002  0.2558248764820021   F   F   F
  0.8711502730335070  0.9197537624772636  0.2371499889129893   F   F   F
  0.6329061833917891  0.4162774384312868  0.7308459361220798   F   F   F
  0.8670386551474891  0.5818833736711895  0.2344254436999691   F   F   F
  0.6277111576065550  0.0790959698552811  0.7401590989662381   F   F   F
  0.0846169951006459  0.9566747181487116  0.8065216093003826   F   F   F
  0.4153414593273013  0.4592127574002163  0.3055288145201089   F   F   F
  0.0818156542099828  0.5398802518648793  0.7997289687800020   F   F   F
  0.4105598320269692  0.0432575862262468  0.3118029159154503   F   F   F
  0.9151392855584888  0.0409189607369598  0.1922256823330954   F   F   F
  0.5895235218297756  0.5388038139598876  0.6946950663207829   F   F   F
  0.9158335382604150  0.4613170847224168  0.2000956765163906   F   F   F
  0.5910669938464608  0.9568477111718821  0.6853164120165474   F   F   F
  0.2137867850412718  0.1395544982953894  0.6458773623171368   F   F   F
  0.2870255779400068  0.6441164925088287  0.1528458797001235   F   F   F
  0.2136301649577632  0.3568014576462986  0.6522973307907023   F   F   F
  0.2759000604223587  0.8678049369635588  0.1437526071018169   F   F   F
  0.7830545555915620  0.8598233169732765  0.3505478622764358   F   F   F
  0.7147991992511606  0.3562671273245925  0.8515586341742107   F   F   F
  0.7823993117026902  0.6422089292177944  0.3520912918937924   F   F   F
  0.7161632878977926  0.1398721622330612  0.8516248089998726   F   F   F
  0.4953979268553752  0.8669713023946812  0.7210530349269959   F   F   F
  0.0027470469648421  0.3615067393904354  0.2154808212558592   F   F   F
  0.4998278413943353  0.6352483920327998  0.7166658517141471   F   F   F
  0.0049730047649561  0.1378156408312989  0.2196343093028759   F   F   F
  0.5046227965283734  0.1339107186915527  0.2753884645352755   F   F   F
  0.0001933975879211  0.6436265101081986  0.7874747418600734   F   F   F
  0.5024476519723322  0.3612290688511308  0.2842213061377947   F   F   F
  0.9935664379360389  0.8619849531098609  0.7743503802536651   F   F   F
  0.3790292224908356  0.8347466625780768  0.7941562467949694   F   F   F
  0.1178980345797598  0.3367185312939256  0.2926459778168464   F   F   F
  0.3855588301221147  0.6598143584417926  0.7966962813249481   F   F   F
  0.1222961334225943  0.1692105856919213  0.2894277813622779   F   F   F
  0.6207699014579688  0.1652194578387665  0.2029973760452748   F   F   F
  0.8852042518933985  0.6596584165241168  0.7047404967750381   F   F   F
  0.6176376476507386  0.3366108807340424  0.2067527543948273   F   F   F
  0.8766764215987450  0.8345918897315556  0.7030051999107769   F   F   F
  0.4390238435886502  0.7503303934512644  0.6716511970297319   F   F   F
  0.0665106389748829  0.2505647477717474  0.1590014992454059   F   F   F
  0.5645812817656193  0.2479455377526705  0.3336347471002270   F   F   F
  0.9288674504272834  0.7515532309520339  0.8358534581653174   F   F   F
  0.3106117605038392  0.8678931875964437  0.9531019356458117   F   F   F
  0.1820913471377708  0.3654369774425206  0.4595800387433684   F   F   F
  0.3178880554672716  0.6384148280286581  0.9607064443598432   F   F   F
  0.1877319795579524  0.1346443533973911  0.4528579855860499   F   F   F
  0.6907100628873124  0.1295035113331551  0.0442997616761929   F   F   F
  0.8136124579935000  0.6327998747898533  0.5436757336810913   F   F   F
  0.6845246327056529  0.3658974612458437  0.0434066772810695   F   F   F
  0.8061070108336921  0.8709023710631953  0.5440774096815204   F   F   F
  0.2488983704344037  0.8426728836030719  0.7813932325594095   F   F   F
  0.2482698684263838  0.3384085139128885  0.2940468489633545   F   F   F
  0.2562240485657341  0.6649317700480708  0.7886251908642663   F   F   F
  0.2530128310481743  0.1562639829569221  0.2839626631194960   F   F   F
  0.7511666713455796  0.1597060583057015  0.2145513107266126   F   F   F
  0.7554520391326704  0.6636975245193639  0.7153910653943285   F   F   F
  0.7480373540378693  0.3360444761362089  0.2121817254730658   F   F   F
  0.7465178660909544  0.8417687055147951  0.7146399861941930   F   F   F
  0.2825057552316892  0.7526705989634195  0.0442615672194506   F   F   F
  0.2174293858100285  0.2497095932318132  0.5393780134854183   F   F   F
  0.7094246710336165  0.2482179912396631  0.9620799703391327   F   F   F
  0.7945911354504602  0.7512506204559486  0.4608242574378565   F   F   F
  0.1881581575258124  0.8410347470923369  0.0022239414497562   F   F   F
  0.3060616141059782  0.3467631845913814  0.5118637064604314   F   F   F
  0.1947062164107365  0.6565708674365709  0.0130223490084944   F   F   F
  0.3095873223920762  0.1559119070314736  0.5121014587095658   F   F   F
  0.8104039451787770  0.1636874520510716  0.9859883477550824   F   F   F
  0.6930754791187326  0.6697343921639742  0.4925439376936751   F   F   F
  0.8063971374749030  0.3367827660742009  0.9914881885897984   F   F   F
  0.6888830589381527  0.8296782744250422  0.4827937591644726   F   F   F
  0.0975211868083434  0.7462224214938686  0.0382731883483771   F   F   F
  0.3980344419792772  0.2531169709264418  0.5475336552916232   F   F   F
  0.9071997097508842  0.2533057852029899  0.9618238831193082   F   F   F
  0.5889407876922519  0.7459672793262939  0.4505134300329630   F   F   F
  0.0675120703322847  0.8560711666201044  0.9350833319466076   F   F   F
  0.4262727407526654  0.3632828752051225  0.4427700223797899   F   F   F
  0.0761936858933012  0.6298981256375171  0.9457662682555394   F   F   F
  0.4268042116252104  0.1500668272099688  0.4295931908839918   F   F   F
  0.9275462912157977  0.1403097959600927  0.0619040258672428   F   F   F
  0.5762649721683033  0.6342785490092240  0.5587472710311303   F   F   F
  0.9240009747473295  0.3686603888660827  0.0586476921681083   F   F   F
  0.5736174379937751  0.8525655726279595  0.5655291579591974   F   F   F
  0.1201324590471771  0.8345697278382573  0.7539599494184301   F   F   F
  0.3758702370338156  0.3368077591932135  0.2603887175495103   F   F   F
  0.1272051529904843  0.6620947763874909  0.7665568493744317   F   F   F
  0.3794837466290701  0.1629712377129167  0.2421409670454153   F   F   F
  0.8793718932782326  0.1628149567995791  0.2458869236966308   F   F   F
  0.6261802784633659  0.6621182371002874  0.7404502655446663   F   F   F
  0.8765592175733303  0.3379213430532531  0.2404878402163959   F   F   F
  0.6192905096742649  0.8355408304423051  0.7524791589877822   F   F   F
  0.1984138857202993  0.7491792488315951  0.6627447150879604   F   F   F
  0.2988633983702798  0.2526007296841684  0.1639753026996615   F   F   F
  0.8026185924944187  0.2501236730647776  0.3381786019281918   F   F   F
  0.6991700436048802  0.7492931642341460  0.8403629286641845   F   F   F
  0.4260356080586618  0.0631532617400339  0.6844706650827206   F   F   F
  0.0726512669103059  0.5657097501702211  0.1970423320022334   F   F   F
  0.4273819302071118  0.4375278059355878  0.6975615121138432   F   F   F
  0.0748314524977189  0.9329828015166868  0.1862387404082568   F   F   F
  0.5736069832532067  0.9357272147172466  0.3103722337361106   F   F   F
  0.9270806014150850  0.4353616092790915  0.8079103956809206   F   F   F
  0.5747034794198029  0.5603111547528599  0.3065629218933239   F   F   F
  0.9250966721053615  0.0671106249588789  0.8103018106884790   F   F   F
  0.3211483096832453  0.0319477379363065  0.8392394757757984   F   F   F
  0.1776583313735287  0.5312308877793583  0.3477325831814468   F   F   F
  0.3227406458835915  0.4692110438115904  0.8490094421263521   F   F   F
  0.1776064729344995  0.9704454504587758  0.3406946987920847   F   F   F
  0.6784565804011464  0.9694186823502520  0.1582686716369466   F   F   F
  0.8222561545380174  0.4684693174159591  0.6556337018064937   F   F   F
  0.6778922644207626  0.5294427879487742  0.1545347179884260   F   F   F
  0.8197643589573715  0.0313627479647707  0.6577577271007016   F   F   F
  0.2777163272778864  0.0539998353236939  0.0568750234512692   F   F   F
  0.2236592024309587  0.5495980411897321  0.5676373526445175   F   F   F
  0.2767967171080414  0.4524944730715035  0.0684321289166547   F   F   F
  0.2201282135955580  0.9471747708414426  0.5585349699932678   F   F   F
  0.7209846783328970  0.9494846845327416  0.9398335578342127   F   F   F
  0.7768629669119278  0.4496863144896963  0.4361191215825215   F   F   F
  0.7233036090618441  0.5481477617099131  0.9350386802915907   F   F   F
  0.7784353785305740  0.0507311118210083  0.4385834047612533   F   F   F
  0.1222183492575510  0.0574304912752126  0.0468924590178545   F   F   F
  0.3797633208998548  0.5589054078584255  0.5541082157361288   F   F   F
  0.1211205634446415  0.4441820793674722  0.0540978088352944   F   F   F
  0.3757233676509344  0.9383577816943003  0.5467988501075354   F   F   F
  0.8762124247549892  0.9432735982150220  0.9498871840836287   F   F   F
  0.6213553792558102  0.4386761144731537  0.4480969816764997   F   F   F
  0.8791412318543550  0.5579665843444843  0.9484816656261401   F   F   F
  0.6232343546400969  0.0587765493456374  0.4497660948102933   F   F   F
  0.0744873854257122  0.0370434198120861  0.8246116705356101   F   F   F
  0.4256162915314476  0.5389638826228591  0.3316166305597719   F   F   F
  0.0758126233573151  0.4606546719667080  0.8289816482854135   F   F   F
  0.4233605944760441  0.9627056653362160  0.3261271453623635   F   F   F
  0.9250233475478638  0.9607744749259908  0.1725653450434805   F   F   F
  0.5772461611502919  0.4590580301815095  0.6721196595900167   F   F   F
  0.9232133200920671  0.5410167174192395  0.1747387567671339   F   F   F
  0.5766139751558157  0.0367973805879771  0.6716803453386575   F   F   F
  0.2011770204793493  0.0720188936449588  0.7105914329932332   F   F   F
  0.2974350772559831  0.5767147469982064  0.2205374436872773   F   F   F
  0.2045208957889173  0.4240532441602127  0.7183705451763913   F   F   F
  0.2964944965773739  0.9326616927322817  0.2098104003711398   F   F   F
  0.7979970375970211  0.9269290341723888  0.2861456815094670   F   F   F
  0.7037520849483982  0.4233803753399954  0.7849597164655790   F   F   F
  0.7949044593181611  0.5749833205971910  0.2859355960681356   F   F   F
  0.7006764680733113  0.0725844526924675  0.7867541845573953   F   F   F
  0.4263858091058168  0.8300930167282772  0.6954222150327141   F   F   F
  0.0739879009695699  0.3289633402735959  0.1911696634813609   F   F   F
  0.4297973316741306  0.6713537438269128  0.6964790081595851   F   F   F
  0.0754130555251891  0.1717259707265129  0.1909949622422431   F   F   F
  0.5748504162616896  0.1694742710699586  0.3024520635464611   F   F   F
  0.9259491507052786  0.6720675747776994  0.8077347228433851   F   F   F
  0.5738691345216154  0.3270618837247312  0.3071360487033772   F   F   F
  0.9223020276315594  0.8298739242801858  0.8025000432166820   F   F   F
  0.3143517812238983  0.8746562730657672  0.8323233881189438   F   F   F
  0.1822902653822638  0.3731790075100108  0.3388297984473496   F   F   F
  0.3183394379930959  0.6275492539314627  0.8396802126806264   F   F   F
  0.1850813177143991  0.1274303860015209  0.3318244840654074   F   F   F
  0.6860773935909492  0.1258783764190810  0.1653588459662032   F   F   F
  0.8174510140910911  0.6258108650793943  0.6649776946925101   F   F   F
  0.6837537117492118  0.3727093418471057  0.1646184995402322   F   F   F
  0.8112461119681882  0.8748728031270545  0.6652628160111149   F   F   F
  0.2646242010924027  0.8324566026469142  0.0362536431284042   F   F   F
  0.2302990233512432  0.3295312490354050  0.5411745585280485   F   F   F
  0.2706332990764651  0.6736567199561705  0.0438491497560065   F   F   F
  0.2327340567350191  0.1699961187057184  0.5377289159403631   F   F   F
  0.7321122219230958  0.1702745082303210  0.9603617014355947   F   F   F
  0.7704116933016181  0.6737903971106931  0.4618883224080221   F   F   F
  0.7291573541997778  0.3267050723084211  0.9617099234244719   F   F   F
  0.7677235279435237  0.8280962044422111  0.4591201612423603   F   F   F
  0.1109637993327368  0.8262493244455769  0.0267890082693683   F   F   F
  0.3838342649605622  0.3327620838180465  0.5351092965392752   F   F   F
  0.1161958536238430  0.6675839508870851  0.0348549906080109   F   F   F
  0.3872422272839984  0.1732856259235334  0.5285792948246169   F   F   F
  0.8885312388402724  0.1741670920980951  0.9687343529507402   F   F   F
  0.6152965026577704  0.6679649201778233  0.4653179227836830   F   F   F
  0.8844414138642662  0.3313454379976619  0.9689587454644339   F   F   F
  0.6104615493023431  0.8249000754424358  0.4668059015883657   F   F   F
  0.0671370911358409  0.8772395807229003  0.8177044701687777   F   F   F
  0.4297896922982929  0.3805301407484052  0.3236710356647379   F   F   F
  0.0715223535197680  0.6189263223563231  0.8250774638132938   F   F   F
  0.4298553257459403  0.1217097400493898  0.3148313860227532   F   F   F
  0.9313036939635779  0.1205892789515488  0.1799073933825568   F   F   F
  0.5740331140709927  0.6176748272759482  0.6774324337837854   F   F   F
  0.9291320115688677  0.3821524440514992  0.1785370895548795   F   F   F
  0.5703668807383124  0.8783408472360605  0.6819973883151462   F   F   F
  0.1912941486893232  0.8260905309065549  0.6993866189493616   F   F   F
  0.3044744641866828  0.3277162318088429  0.2089131370868600   F   F   F
  0.1963549698349638  0.6737373571640006  0.7082844577398220   F   F   F
  0.3063122251402248  0.1740084128582353  0.1974731657533226   F   F   F
  0.8074244389033112  0.1730866632902774  0.2983266770247894   F   F   F
  0.6965192085011580  0.6732491033493773  0.7970691834275385   F   F   F
  0.8055433863486456  0.3264006723979875  0.2948804303926451   F   F   F
  0.6919979237387395  0.8264351327779593  0.8015006084688494   F   F   F
  0.3136388291734988  0.7534242313418318  0.3455170394130960   F   F   F
  0.4057188296271264  0.7922276074496537  0.2569218864920657   F   F   F
  0.3801832235540843  0.7111781518218265  0.4622984190588042   F   F   F
  0.4771372400201486  0.7441984929435961  0.3866551375630252   F   F   F
  0.4618417667255272  0.7149793461318339  0.2525176284710469   T   T   T
  0.4417269874178942  0.7723202333167052  0.1344526281851799   T   T   T
  0.4538062856200611  0.7344377775026061  0.0768750529077522   T   T   T
  0.4614895892030759  0.6675846722400891  0.2082647682838427   T   T   T
 
  0.00000000E+00  0.00000000E+00  0.00000000E+00
  0.00000000E+00  0.00000000E+00  0.00000000E+00
  0.00000000E+00  0.00000000E+00  0.00000000E+00
  0.00000000E+00  0.00000000E+00  0.00000000E+00
  0.00000000E+00  0.00000000E+00  0.00000000E+00
  0.00000000E+00  0.00000000E+00  0.00000000E+00
  0.00000000E+00  0.00000000E+00  0.00000000E+00
  0.00000000E+00  0.00000000E+00  0.00000000E+00
  0.00000000E+00  0.00000000E+00  0.00000000E+00
  0.00000000E+00  0.00000000E+00  0.00000000E+00
  0.00000000E+00  0.00000000E+00  0.00000000E+00
  0.00000000E+00  0.00000000E+00  0.00000000E+00
  0.00000000E+00  0.00000000E+00  0.00000000E+00
  0.00000000E+00  0.00000000E+00  0.00000000E+00
  0.00000000E+00  0.00000000E+00  0.00000000E+00
  0.00000000E+00  0.00000000E+00  0.00000000E+00
  0.00000000E+00  0.00000000E+00  0.00000000E+00
  0.00000000E+00  0.00000000E+00  0.00000000E+00
  0.00000000E+00  0.00000000E+00  0.00000000E+00
  0.00000000E+00  0.00000000E+00  0.00000000E+00
  0.00000000E+00  0.00000000E+00  0.00000000E+00
  0.00000000E+00  0.00000000E+00  0.00000000E+00
  0.00000000E+00  0.00000000E+00  0.00000000E+00
  0.00000000E+00  0.00000000E+00  0.00000000E+00
  0.00000000E+00  0.00000000E+00  0.00000000E+00
  0.00000000E+00  0.00000000E+00  0.00000000E+00
  0.00000000E+00  0.00000000E+00  0.00000000E+00
  0.00000000E+00  0.00000000E+00  0.00000000E+00
  0.00000000E+00  0.00000000E+00  0.00000000E+00
  0.00000000E+00  0.00000000E+00  0.00000000E+00
  0.00000000E+00  0.00000000E+00  0.00000000E+00
  0.00000000E+00  0.00000000E+00  0.00000000E+00
  0.00000000E+00  0.00000000E+00  0.00000000E+00
  0.00000000E+00  0.00000000E+00  0.00000000E+00
  0.00000000E+00  0.00000000E+00  0.00000000E+00
  0.00000000E+00  0.00000000E+00  0.00000000E+00
  0.00000000E+00  0.00000000E+00  0.00000000E+00
  0.00000000E+00  0.00000000E+00  0.00000000E+00
  0.00000000E+00  0.00000000E+00  0.00000000E+00
  0.00000000E+00  0.00000000E+00  0.00000000E+00
  0.00000000E+00  0.00000000E+00  0.00000000E+00
  0.00000000E+00  0.00000000E+00  0.00000000E+00
  0.00000000E+00  0.00000000E+00  0.00000000E+00
  0.00000000E+00  0.00000000E+00  0.00000000E+00
  0.00000000E+00  0.00000000E+00  0.00000000E+00
  0.00000000E+00  0.00000000E+00  0.00000000E+00
  0.00000000E+00  0.00000000E+00  0.00000000E+00
  0.00000000E+00  0.00000000E+00  0.00000000E+00
  0.00000000E+00  0.00000000E+00  0.00000000E+00
  0.00000000E+00  0.00000000E+00  0.00000000E+00
  0.00000000E+00  0.00000000E+00  0.00000000E+00
  0.00000000E+00  0.00000000E+00  0.00000000E+00
  0.00000000E+00  0.00000000E+00  0.00000000E+00
  0.00000000E+00  0.00000000E+00  0.00000000E+00
  0.00000000E+00  0.00000000E+00  0.00000000E+00
  0.00000000E+00  0.00000000E+00  0.00000000E+00
  0.00000000E+00  0.00000000E+00  0.00000000E+00
  0.00000000E+00  0.00000000E+00  0.00000000E+00
  0.00000000E+00  0.00000000E+00  0.00000000E+00
  0.00000000E+00  0.00000000E+00  0.00000000E+00
  0.00000000E+00  0.00000000E+00  0.00000000E+00
  0.00000000E+00  0.00000000E+00  0.00000000E+00
  0.00000000E+00  0.00000000E+00  0.00000000E+00
  0.00000000E+00  0.00000000E+00  0.00000000E+00
  0.00000000E+00  0.00000000E+00  0.00000000E+00
  0.00000000E+00  0.00000000E+00  0.00000000E+00
  0.00000000E+00  0.00000000E+00  0.00000000E+00
  0.00000000E+00  0.00000000E+00  0.00000000E+00
  0.00000000E+00  0.00000000E+00  0.00000000E+00
  0.00000000E+00  0.00000000E+00  0.00000000E+00
  0.00000000E+00  0.00000000E+00  0.00000000E+00
  0.00000000E+00  0.00000000E+00  0.00000000E+00
  0.00000000E+00  0.00000000E+00  0.00000000E+00
  0.00000000E+00  0.00000000E+00  0.00000000E+00
  0.00000000E+00  0.00000000E+00  0.00000000E+00
  0.00000000E+00  0.00000000E+00  0.00000000E+00
  0.00000000E+00  0.00000000E+00  0.00000000E+00
  0.00000000E+00  0.00000000E+00  0.00000000E+00
  0.00000000E+00  0.00000000E+00  0.00000000E+00
  0.00000000E+00  0.00000000E+00  0.00000000E+00
  0.00000000E+00  0.00000000E+00  0.00000000E+00
  0.00000000E+00  0.00000000E+00  0.00000000E+00
  0.00000000E+00  0.00000000E+00  0.00000000E+00
  0.00000000E+00  0.00000000E+00  0.00000000E+00
  0.00000000E+00  0.00000000E+00  0.00000000E+00
  0.00000000E+00  0.00000000E+00  0.00000000E+00
  0.00000000E+00  0.00000000E+00  0.00000000E+00
  0.00000000E+00  0.00000000E+00  0.00000000E+00
  0.00000000E+00  0.00000000E+00  0.00000000E+00
  0.00000000E+00  0.00000000E+00  0.00000000E+00
  0.00000000E+00  0.00000000E+00  0.00000000E+00
  0.00000000E+00  0.00000000E+00  0.00000000E+00
  0.00000000E+00  0.00000000E+00  0.00000000E+00
  0.00000000E+00  0.00000000E+00  0.00000000E+00
  0.00000000E+00  0.00000000E+00  0.00000000E+00
  0.00000000E+00  0.00000000E+00  0.00000000E+00
  0.00000000E+00  0.00000000E+00  0.00000000E+00
  0.00000000E+00  0.00000000E+00  0.00000000E+00
  0.00000000E+00  0.00000000E+00  0.00000000E+00
  0.00000000E+00  0.00000000E+00  0.00000000E+00
  0.00000000E+00  0.00000000E+00  0.00000000E+00
  0.00000000E+00  0.00000000E+00  0.00000000E+00
  0.00000000E+00  0.00000000E+00  0.00000000E+00
  0.00000000E+00  0.00000000E+00  0.00000000E+00
  0.00000000E+00  0.00000000E+00  0.00000000E+00
  0.00000000E+00  0.00000000E+00  0.00000000E+00
  0.00000000E+00  0.00000000E+00  0.00000000E+00
  0.00000000E+00  0.00000000E+00  0.00000000E+00
  0.00000000E+00  0.00000000E+00  0.00000000E+00
  0.00000000E+00  0.00000000E+00  0.00000000E+00
  0.00000000E+00  0.00000000E+00  0.00000000E+00
  0.00000000E+00  0.00000000E+00  0.00000000E+00
  0.00000000E+00  0.00000000E+00  0.00000000E+00
  0.00000000E+00  0.00000000E+00  0.00000000E+00
  0.00000000E+00  0.00000000E+00  0.00000000E+00
  0.00000000E+00  0.00000000E+00  0.00000000E+00
  0.00000000E+00  0.00000000E+00  0.00000000E+00
  0.00000000E+00  0.00000000E+00  0.00000000E+00
  0.00000000E+00  0.00000000E+00  0.00000000E+00
  0.00000000E+00  0.00000000E+00  0.00000000E+00
  0.00000000E+00  0.00000000E+00  0.00000000E+00
  0.00000000E+00  0.00000000E+00  0.00000000E+00
  0.00000000E+00  0.00000000E+00  0.00000000E+00
  0.00000000E+00  0.00000000E+00  0.00000000E+00
  0.00000000E+00  0.00000000E+00  0.00000000E+00
  0.00000000E+00  0.00000000E+00  0.00000000E+00
  0.00000000E+00  0.00000000E+00  0.00000000E+00
  0.00000000E+00  0.00000000E+00  0.00000000E+00
  0.00000000E+00  0.00000000E+00  0.00000000E+00
  0.00000000E+00  0.00000000E+00  0.00000000E+00
  0.00000000E+00  0.00000000E+00  0.00000000E+00
  0.00000000E+00  0.00000000E+00  0.00000000E+00
  0.00000000E+00  0.00000000E+00  0.00000000E+00
  0.00000000E+00  0.00000000E+00  0.00000000E+00
  0.00000000E+00  0.00000000E+00  0.00000000E+00
  0.00000000E+00  0.00000000E+00  0.00000000E+00
  0.00000000E+00  0.00000000E+00  0.00000000E+00
  0.00000000E+00  0.00000000E+00  0.00000000E+00
  0.00000000E+00  0.00000000E+00  0.00000000E+00
  0.00000000E+00  0.00000000E+00  0.00000000E+00
  0.00000000E+00  0.00000000E+00  0.00000000E+00
  0.00000000E+00  0.00000000E+00  0.00000000E+00
  0.00000000E+00  0.00000000E+00  0.00000000E+00
  0.00000000E+00  0.00000000E+00  0.00000000E+00
  0.00000000E+00  0.00000000E+00  0.00000000E+00
  0.00000000E+00  0.00000000E+00  0.00000000E+00
  0.00000000E+00  0.00000000E+00  0.00000000E+00
  0.00000000E+00  0.00000000E+00  0.00000000E+00
  0.00000000E+00  0.00000000E+00  0.00000000E+00
  0.00000000E+00  0.00000000E+00  0.00000000E+00
  0.00000000E+00  0.00000000E+00  0.00000000E+00
  0.00000000E+00  0.00000000E+00  0.00000000E+00
  0.00000000E+00  0.00000000E+00  0.00000000E+00
  0.00000000E+00  0.00000000E+00  0.00000000E+00
  0.00000000E+00  0.00000000E+00  0.00000000E+00
  0.00000000E+00  0.00000000E+00  0.00000000E+00
  0.00000000E+00  0.00000000E+00  0.00000000E+00
  0.00000000E+00  0.00000000E+00  0.00000000E+00
  0.00000000E+00  0.00000000E+00  0.00000000E+00
  0.00000000E+00  0.00000000E+00  0.00000000E+00
  0.00000000E+00  0.00000000E+00  0.00000000E+00
  0.00000000E+00  0.00000000E+00  0.00000000E+00
  0.00000000E+00  0.00000000E+00  0.00000000E+00
  0.00000000E+00  0.00000000E+00  0.00000000E+00