O  Si Ru C  H                           
   1.00000000000000     
    20.3096463179830877    0.0000000000000000    0.0000000000000000
     0.0000000000000000   19.8625212307842212    0.0000000000000000
     0.0000000000000000    0.0000000000000000   13.3711533343531652
   O    Si   Ru   C    H 
   192    96     2     2     2
Selective dynamics
Direct
  0.5038396690134590  0.0728592037947848  0.7061298752125609   F   F   F
  0.9981846984874210  0.5702261447675525  0.2086110655226250   F   F   F
  0.5039490226112022  0.4271962053301479  0.7063698652943700   F   F   F
  0.9980441121196648  0.9295866512345086  0.2083731563020592   F   F   F
  0.4972640335949166  0.9276345208091001  0.2904434796952700   F   F   F
  0.0039236185229257  0.4275915862344704  0.7904383884384174   F   F   F
  0.4973062443739806  0.5725336661324008  0.2904677513818825   F   F   F
  0.0038927164731035  0.0723467194040097  0.7900435212995944   F   F   F
  0.3896103019196175  0.0648196607865756  0.7976100974706384   F   F   F
  0.1138641940025380  0.5691343857385149  0.2970194414305922   F   F   F
  0.3896429325075133  0.4351628687945350  0.7975668808369392   F   F   F
  0.1133362345459403  0.9312837921582755  0.2975159299172887   F   F   F
  0.6123404112778843  0.9322656830010132  0.2010476390723426   F   F   F
  0.8886471584205538  0.4332505146136043  0.7010843494631445   F   F   F
  0.6126033735610079  0.5680737119877861  0.2016716575411976   F   F   F
  0.8885616070942604  0.0667837505649800  0.7009641942058664   F   F   F
  0.4007767337183878  0.1381881466352510  0.6337522775345406   F   F   F
  0.0970675572788693  0.6399676604660485  0.1320681648543811   F   F   F
  0.4009774184277930  0.3618161861551386  0.6337244344287711   F   F   F
  0.0974854826764755  0.8601872576497414  0.1327113608863968   F   F   F
  0.5979337090195003  0.8602969094225443  0.3662837221651714   F   F   F
  0.9023603503704436  0.3620128788176942  0.8667531335036429   F   F   F
  0.5978443690305824  0.6397330668429646  0.3668931071905988   F   F   F
  0.9024157043799903  0.1379477567550680  0.8666289713381374   F   F   F
  0.4067274639341321  0.0042434611103275  0.6212019160047788   F   F   F
  0.0979624428571881  0.5058128894223159  0.1228014194167955   F   F   F
  0.4068791254862845  0.4957687234999426  0.6211979233451075   F   F   F
  0.0978093327539185  0.9942865147849957  0.1228101663588461   F   F   F
  0.5952966256431793  0.9945710175365932  0.3755100980445576   F   F   F
  0.9064911140255560  0.4964240323622988  0.8744375348517011   F   F   F
  0.5953624934295121  0.5054453548318918  0.3757915914455623   F   F   F
  0.9065456133473262  0.0035186438436128  0.8742754405213446   F   F   F
  0.3244520436059588  0.0387077463495373  0.9645872274955778   F   F   F
  0.1758569368976666  0.5381135225497715  0.4655308621929137   F   F   F
  0.3245957975215248  0.4613044713612737  0.9645368020538996   F   F   F
  0.1760962156509009  0.9616834892132573  0.4654958371775422   F   F   F
  0.6780168978636993  0.9603335502114234  0.0355159432360637   F   F   F
  0.8240780165315513  0.4622881906440881  0.5348402586242713   F   F   F
  0.6777923626487521  0.5398410022786209  0.0355964105159217   F   F   F
  0.8240011350072862  0.0377480983268015  0.5347819235470794   F   F   F
  0.3208434066790034  0.9527782798168047  0.8096303933538280   F   F   F
  0.1763426347018040  0.4536584061287172  0.3081740413171588   F   F   F
  0.3207874139254301  0.5472177580285660  0.8095722230119833   F   F   F
  0.1766388271712458  0.0463188748122860  0.3082209381017407   F   F   F
  0.6803621064155578  0.0452717168016932  0.1917234241416352   F   F   F
  0.8219065604740763  0.5469176022707458  0.6917825581359480   F   F   F
  0.6803340484438039  0.4549140934114391  0.1917521421700741   F   F   F
  0.8219561256571595  0.9530993559636443  0.6916498799273896   F   F   F
  0.2582922093265054  0.0690353392163203  0.8008750895391969   F   F   F
  0.2454279255856662  0.5663092377438161  0.3052642613250001   F   F   F
  0.2583050147621293  0.4309907393418584  0.8009200332755952   F   F   F
  0.2447960935410478  0.9330454425217809  0.3045810337593835   F   F   F
  0.7434786525403609  0.9291071945102090  0.1997358745539657   F   F   F
  0.7572883265008343  0.4316688858328845  0.6978710649497444   F   F   F
  0.7438139178153236  0.5708195916444438  0.1992719139194179   F   F   F
  0.7572114963257803  0.0684036966708632  0.6977798793836101   F   F   F
  0.2920943526050621  0.1267759793641190  0.1044178217996361   F   F   F
  0.2089064730744283  0.6257711952184266  0.6055306743589171   F   F   F
  0.2923457932813065  0.3732050262921263  0.1043437194153753   F   F   F
  0.2090456123747302  0.8742742976207722  0.6059584486524940   F   F   F
  0.7102039417467338  0.8744068300655599  0.8928838875626681   F   F   F
  0.7928687348090193  0.3749745088506415  0.3934840344561863   F   F   F
  0.7104092653228165  0.6257582831157507  0.8932832012976633   F   F   F
  0.7926386530290728  0.1250381928246895  0.3933579189340648   F   F   F
  0.2006244145014620  0.0449698074661953  0.0257668533657807   F   F   F
  0.2993910413899954  0.5417685760077333  0.5308751178049889   F   F   F
  0.2008218434551239  0.4550554538003766  0.0259674067503468   F   F   F
  0.2995449930052416  0.9577172712540190  0.5308404886748548   F   F   F
  0.8011582582699006  0.9571127298080384  0.9701585921093994   F   F   F
  0.7012220575709094  0.4575326159294235  0.4685981248446964   F   F   F
  0.8010861959675921  0.5427430631026269  0.9706555808116377   F   F   F
  0.7011213449714262  0.0423311676366822  0.4684232983440992   F   F   F
  0.2932966778982404  0.9970849276470943  0.1463016681093166   F   F   F
  0.2034820047099188  0.4963103300024656  0.6482860619670845   F   F   F
  0.2936707628773405  0.5026590385630030  0.1466134294085464   F   F   F
  0.2035387473890822  0.0037593199064787  0.6481660693662903   F   F   F
  0.7052725984907084  0.0043399611124002  0.8538130995023963   F   F   F
  0.7969959800232687  0.5049294008039382  0.3524916059061667   F   F   F
  0.7053715830891392  0.4958084022093345  0.8539327845609108   F   F   F
  0.7971282043242098  0.9950269794594107  0.3525091072127040   F   F   F
  0.1088601391767483  0.1267471355138525  0.0979751107563374   F   F   F
  0.3890290927529847  0.6267919536317095  0.6020561005091380   F   F   F
  0.1091731968797092  0.3732262298473330  0.0983321566712192   F   F   F
  0.3898402434612791  0.8725971912151564  0.6005071992933537   F   F   F
  0.8924783686366098  0.8720090130410441  0.9041850334268631   F   F   F
  0.6099744320991149  0.3731407336919474  0.4008781299365793   F   F   F
  0.8922276767646906  0.6278801484556311  0.9041056140234858   F   F   F
  0.6099549892996592  0.1268482421984913  0.4006274879555107   F   F   F
  0.0812256302055516  0.0474081742183117  0.9450170455481128   F   F   F
  0.4165126555505694  0.5508905434820122  0.4433554394482044   F   F   F
  0.0813903515395467  0.4524327835191713  0.9452969532644389   F   F   F
  0.4168836954762796  0.9493468878920766  0.4436457692395095   F   F   F
  0.9199392043444448  0.9537625189241936  0.0540260642089905   F   F   F
  0.5834788404869826  0.4523719141646865  0.5542350919088150   F   F   F
  0.9199073830378381  0.5464101308949054  0.0542526457447750   F   F   F
  0.5833531324039853  0.0476641690121653  0.5540019977974566   F   F   F
  0.1309300712085104  0.0805893102338544  0.7673197816187312   F   F   F
  0.3713626522179183  0.5779390667580060  0.2593016198450755   F   F   F
  0.1309385438834525  0.4194094347368633  0.7674450152905408   F   F   F
  0.3708087688336192  0.9224209109973529  0.2605576150976248   F   F   F
  0.8711819569624026  0.9205731894950233  0.2318087894673866   F   F   F
  0.6303160851011569  0.4216301160243603  0.7347908226874793   F   F   F
  0.8713804015524786  0.5793491028005917  0.2323143090331783   F   F   F
  0.6301889514952137  0.0784400492249517  0.7345025055183712   F   F   F
  0.0767564776583285  0.9609460133524692  0.7925549368539464   F   F   F
  0.4262752258989480  0.4606960129588344  0.2970519063425883   F   F   F
  0.0766842240573098  0.5390189670085803  0.7928586691084902   F   F   F
  0.4264117741565769  0.0393070505911695  0.2969444334214870   F   F   F
  0.9246841325730486  0.0404844905457011  0.2060062898113841   F   F   F
  0.5742812499162184  0.5401560740526250  0.7043241556661570   F   F   F
  0.9247216613382321  0.4593930300649518  0.2059298724738738   F   F   F
  0.5741593219984722  0.9598859840210139  0.7040785742804303   F   F   F
  0.2156243706187766  0.1379111159718249  0.6473165675178478   F   F   F
  0.2810038836995545  0.6362936228491023  0.1488364018551067   F   F   F
  0.2156171530225066  0.3621632639969192  0.6473512800917263   F   F   F
  0.2822638648945173  0.8630811441302555  0.1490181346075587   F   F   F
  0.7896872917439381  0.8604038267928686  0.3520556500146768   F   F   F
  0.7154897735960333  0.3616098284899323  0.8513735036737842   F   F   F
  0.7892431094075718  0.6394650863556350  0.3520140285452555   F   F   F
  0.7151759851424444  0.1385747292247927  0.8511225788974386   F   F   F
  0.4979148839501448  0.8516581599117004  0.7135400872269244   F   F   F
  0.0030451084293617  0.3528124234908958  0.2133763591130560   F   F   F
  0.4973377808539610  0.6478965389011790  0.7142853269073157   F   F   F
  0.0028111075652433  0.1472098877186312  0.2132325213711965   F   F   F
  0.5029279570981871  0.1474689906540831  0.2874692712353735   F   F   F
  0.9975353670599176  0.6451022979086503  0.7856448208995559   F   F   F
  0.5030556287094825  0.3527188560586367  0.2874995410374837   F   F   F
  0.9980946389757506  0.8544110075310698  0.7865796453620888   F   F   F
  0.3815067466796052  0.8348742663393054  0.7921999242763391   F   F   F
  0.1202431100952239  0.3339447707803060  0.2887858103339767   F   F   F
  0.3808468229270048  0.6657003983687559  0.7926691613353682   F   F   F
  0.1200555858721160  0.1657564226402783  0.2886043498603854   F   F   F
  0.6194770618679115  0.1631733923748087  0.2089190901120617   F   F   F
  0.8801555637924210  0.6658233665164488  0.7132574671671961   F   F   F
  0.6196928129126178  0.3369082478388066  0.2091683012493846   F   F   F
  0.8809948728217449  0.8344315682843302  0.7131350240843091   F   F   F
  0.4219796265218889  0.7498508811115485  0.6508898539727923   F   F   F
  0.0761609745971512  0.2499550347169901  0.1493163511042113   F   F   F
  0.5780782500243475  0.2500176304267470  0.3466127348898951   F   F   F
  0.9272386540696758  0.7499004717801085  0.8502922539756597   F   F   F
  0.3164624046780844  0.8642613487284194  0.9573986564392385   F   F   F
  0.1832522236049883  0.3659584477655713  0.4556568912002561   F   F   F
  0.3159768678910808  0.6353511364957640  0.9574478879283959   F   F   F
  0.1831292342956701  0.1341512086358350  0.4556256851944269   F   F   F
  0.6840849645733300  0.1329998762992091  0.0431936637525467   F   F   F
  0.8198884344213937  0.6356847447280813  0.5444375311453840   F   F   F
  0.6841847274361044  0.3670998833427674  0.0433445950104456   F   F   F
  0.8203931434238712  0.8640522125084331  0.5444751080114827   F   F   F
  0.2511273992439342  0.8411560579053230  0.7891540967240331   F   F   F
  0.2504315226213976  0.3444746459387105  0.2889077182269730   F   F   F
  0.2504698942501733  0.6583869447764243  0.7892354591998156   F   F   F
  0.2502860448503625  0.1557881328665758  0.2889807923190588   F   F   F
  0.7499304148677410  0.1572785686670954  0.2104109290442935   F   F   F
  0.7498604034436624  0.6575850357553392  0.7085931924620255   F   F   F
  0.7501578110258933  0.3430730585525197  0.2104978125316066   F   F   F
  0.7507651269752600  0.8419503044418448  0.7088646439746427   F   F   F
  0.2955546133620714  0.7497532686936026  0.0547281447157815   F   F   F
  0.2036738351183445  0.2500343048647053  0.5469620546117611   F   F   F
  0.7037780355080514  0.2500671909998147  0.9540442782656271   F   F   F
  0.7878655435537354  0.7499203366029477  0.4562457643038300   F   F   F
  0.1954302790276401  0.8308332829861982  0.0083362941743061   F   F   F
  0.3041127929584420  0.3322912416558026  0.5078502778843799   F   F   F
  0.1950545784113800  0.6694397924389435  0.0076084463042960   F   F   F
  0.3040473636754726  0.1677487404375881  0.5076789293000985   F   F   F
  0.8044156414623842  0.1675968819850127  0.9901086535456258   F   F   F
  0.6973464316694944  0.6563380285191585  0.4910193838674815   F   F   F
  0.8045440978518599  0.3323293699713403  0.9905925647957616   F   F   F
  0.6976625588359866  0.8441138807596218  0.4908470782720045   F   F   F
  0.0910800357957697  0.7502376129258579  0.0216502058190997   F   F   F
  0.4069249455412773  0.2499755617116008  0.5273310226113139   F   F   F
  0.9074051353887853  0.2499333009242974  0.9727548788505231   F   F   F
  0.6050537731003729  0.7502616387565340  0.4761765119803840   F   F   F
  0.0813311030666810  0.8706674024277490  0.9368270065935747   F   F   F
  0.4199528343625971  0.3683823532027546  0.4379762682397796   F   F   F
  0.0807015748319060  0.6301276966839708  0.9361967361887551   F   F   F
  0.4198956833407053  0.1315672938483559  0.4379839014639941   F   F   F
  0.9196374488245453  0.1315297063812579  0.0626067920622759   F   F   F
  0.5796225051850783  0.6335372099289458  0.5633998178271611   F   F   F
  0.9199041380429449  0.3682675781943701  0.0626690849047336   F   F   F
  0.5797996989651679  0.8671371756746566  0.5624724346379537   F   F   F
  0.1239446913836773  0.8400742726157873  0.7516612881165656   F   F   F
  0.3773693193219358  0.3413073200819738  0.2513545550451397   F   F   F
  0.1234164705663403  0.6599320927860504  0.7507522449270212   F   F   F
  0.3772127397911333  0.1585677970648973  0.2513737386256736   F   F   F
  0.8769873213582215  0.1610589172309886  0.2481485225870728   F   F   F
  0.6232421949934306  0.6594772775517299  0.7499889357186120   F   F   F
  0.8772103823035877  0.3388065291510785  0.2482447030260388   F   F   F
  0.6239721736261004  0.8406347170995190  0.7485605315946131   F   F   F
  0.2011815546758555  0.7499494310634347  0.6656833415068704   F   F   F
  0.2995637679760677  0.2500082230624088  0.1695809210926456   F   F   F
  0.7982447487501503  0.2500403226709764  0.3331867847262728   F   F   F
  0.7015209135451954  0.7500060175275323  0.8322708595595429   F   F   F
  0.4251157945126209  0.0696114607515241  0.6886811955807701   F   F   F
  0.0767387388446537  0.5707464073825790  0.1891540230937068   F   F   F
  0.4252369016462936  0.4304066610640547  0.6887137561009240   F   F   F
  0.0766108721880698  0.9293977950495602  0.1893198754627718   F   F   F
  0.5756882698468004  0.9288141944551072  0.3092479834714439   F   F   F
  0.9252583330789648  0.4301276769506828  0.8092820974477775   F   F   F
  0.5757478162364933  0.5712166616726151  0.3097589660770410   F   F   F
  0.9252443007551960  0.0698354594113511  0.8090909415896732   F   F   F
  0.3232345536271382  0.0314349421826492  0.8438421178384985   F   F   F
  0.1778497400735688  0.5318156304518951  0.3446538002151058   F   F   F
  0.3232832817326212  0.4685723239488624  0.8437915104092255   F   F   F
  0.1776920198805456  0.9681680686494190  0.3446384657557360   F   F   F
  0.6785828532297202  0.9667740502891107  0.1564145919455981   F   F   F
  0.8229083680129321  0.4685948350865061  0.6556505740326273   F   F   F
  0.6786380489457002  0.5334117395143565  0.1564795297091166   F   F   F
  0.8228106654546181  0.0314390002461167  0.6555898195924357   F   F   F
  0.2771858913637573  0.0521237584229439  0.0606369549439876   F   F   F
  0.2224488742474477  0.5505632459483678  0.5625967667143641   F   F   F
  0.2774220609278046  0.4478750250041159  0.0606544018966844   F   F   F
  0.2225771788277555  0.9493688793828383  0.5627348703663202   F   F   F
  0.7241495752262992  0.9489420893393685  0.9378218954949844   F   F   F
  0.7782515411589017  0.4497865645371064  0.4369689149816480   F   F   F
  0.7241413584478664  0.5511296835333113  0.9380809690132139   F   F   F
  0.7781781114218305  0.0501933398117771  0.4368929824593124   F   F   F
  0.1223758583108037  0.0534282704769709  0.0482453518215991   F   F   F
  0.3776731342649953  0.5539719216859709  0.5486322377464745   F   F   F
  0.1225871477258309  0.4465498855938108  0.0485216231658185   F   F   F
  0.3778989196793390  0.9459577768220484  0.5485943235423321   F   F   F
  0.8795184322297516  0.9465090921434864  0.9504553166353489   F   F   F
  0.6228429246542930  0.4470737868918491  0.4493627378407510   F   F   F
  0.8794258660948842  0.5534259718585659  0.9506542085379834   F   F   F
  0.6227541011899618  0.0529139581234261  0.4491451065057674   F   F   F
  0.0732809939431291  0.0397614256033094  0.8247376443354995   F   F   F
  0.4276645489700712  0.5404734016374277  0.3242115938168268   F   F   F
  0.0733409415479187  0.4601853548696653  0.8250595398500380   F   F   F
  0.4278012539049243  0.9596498217512988  0.3243648685024567   F   F   F
  0.9283271964309066  0.9616674389383988  0.1740669710296103   F   F   F
  0.5732790830668790  0.4609558359722712  0.6738031986268780   F   F   F
  0.9284403784055186  0.5382514574153419  0.1742617603521026   F   F   F
  0.5731626311158848  0.0390822597026954  0.6735594870643524   F   F   F
  0.2021635018015999  0.0719375499361519  0.7147914349718150   F   F   F
  0.2980934736176266  0.5700294316586039  0.2145253241386982   F   F   F
  0.2021478384791990  0.4281105766514557  0.7148606743021375   F   F   F
  0.2979412833913742  0.9298712525317541  0.2143580325138785   F   F   F
  0.8000753855677871  0.9272255775186267  0.2851296116043756   F   F   F
  0.7022128056026702  0.4285023268432084  0.7855856127721736   F   F   F
  0.8001155916661631  0.5727303133267370  0.2850987505204756   F   F   F
  0.7020664748631162  0.0716092671280038  0.7853708444428591   F   F   F
  0.4234850903308498  0.8282369883428160  0.6893316831841716   F   F   F
  0.0769060653113058  0.3277418827575360  0.1868836200228543   F   F   F
  0.4229846235655756  0.6714886275813186  0.6897968212172358   F   F   F
  0.0767090495473823  0.1721265743305054  0.1867414311654514   F   F   F
  0.5773015263428363  0.1717365110010078  0.3115669758901589   F   F   F
  0.9245251120033160  0.6719349467566289  0.8139359811039242   F   F   F
  0.5773854021152474  0.3283275587516812  0.3116828088743375   F   F   F
  0.9248950314733264  0.8278834162621251  0.8141995994461126   F   F   F
  0.3173889558855549  0.8733500823481393  0.8367738546528898   F   F   F
  0.1826244369280872  0.3743135409613458  0.3349406753881468   F   F   F
  0.3169501732111399  0.6265800382672850  0.8367920298107450   F   F   F
  0.1825705341441406  0.1257080173279164  0.3349053743121004   F   F   F
  0.6833840349033196  0.1247656858045190  0.1639966495681691   F   F   F
  0.8179508854034765  0.6264750575574496  0.6649497170375085   F   F   F
  0.6835050886940621  0.3754243002481346  0.1641305332836822   F   F   F
  0.8185731954015765  0.8734721364803235  0.6649647306870321   F   F   F
  0.2720035574749105  0.8272187755905591  0.0418675056412212   F   F   F
  0.2271259636510408  0.3276047528356827  0.5397567457720527   F   F   F
  0.2715373007365045  0.6723664456718552  0.0418958693769937   F   F   F
  0.2270805162663336  0.1724669261681271  0.5396888401019098   F   F   F
  0.7272586276716666  0.1723834201588303  0.9592587306618441   F   F   F
  0.7731715832185841  0.6705640378012205  0.4605315683819029   F   F   F
  0.7274085291779926  0.3276994395044923  0.9594872570575319   F   F   F
  0.7735335544810553  0.8293539949002664  0.4605677324942974   F   F   F
  0.1163626266336664  0.8277828041441211  0.0252726805849761   F   F   F
  0.3828556946856239  0.3279039125351062  0.5269625152249304   F   F   F
  0.1160337896552761  0.6725547060657959  0.0248373237663415   F   F   F
  0.3827823510846429  0.1720668648107377  0.5269246941295620   F   F   F
  0.8832818571345555  0.1719977250809137  0.9728034548016211   F   F   F
  0.6196269516829886  0.6704052768768136  0.4738023770913244   F   F   F
  0.8833623810716702  0.3278849150147849  0.9729670636437149   F   F   F
  0.6200084794312417  0.8299527697525377  0.4733209630944373   F   F   F
  0.0703929477540868  0.8813903531838960  0.8172403929616507   F   F   F
  0.4312011556991990  0.3808008254199962  0.3188578162894089   F   F   F
  0.0700243006924097  0.6186820617125122  0.8167213573082819   F   F   F
  0.4311490302434180  0.1192099822544961  0.3188314391090188   F   F   F
  0.9305238738313406  0.1202354150500256  0.1820434849778181   F   F   F
  0.5694077031577791  0.6201727950483900  0.6823163763114550   F   F   F
  0.9307244901235094  0.3796426381129407  0.1821124946061659   F   F   F
  0.5697836177618001  0.8799036067823423  0.6815844383303542   F   F   F
  0.1961238392347084  0.8273786333163002  0.7033387844067036   F   F   F
  0.3050975030704990  0.3280183181717220  0.2037353046101558   F   F   F
  0.1958169937019889  0.6724582357466318  0.7030131455521058   F   F   F
  0.3049648936995979  0.1720049522021654  0.2037369933663413   F   F   F
  0.8044874372809048  0.1725339064812772  0.2962814296601834   F   F   F
  0.6961426154174148  0.6723293545080296  0.7959621954571219   F   F   F
  0.8046580328101811  0.3275531711317754  0.2963255109361640   F   F   F
  0.6965556152273606  0.8275983069586417  0.7955726084809811   F   F   F
  0.3645435236855405  0.7574137641194838  0.2865969288233359   F   F   F
  0.3837465755315606  0.7503212481901116  0.4510882792950142   F   F   F
  0.4549254219501293  0.7555873971366864  0.3369809541271422   T   T   T
  0.4743955981221006  0.7552105213765827  0.2492352816240810   T   T   T
  0.5136186949858796  0.7550717398467270  0.1955135918825803   T   T   T
  0.4750785178651427  0.7537078109725073  0.4373832170972235   T   T   T
 
  0.00000000E+00  0.00000000E+00  0.00000000E+00
  0.00000000E+00  0.00000000E+00  0.00000000E+00
  0.00000000E+00  0.00000000E+00  0.00000000E+00
  0.00000000E+00  0.00000000E+00  0.00000000E+00
  0.00000000E+00  0.00000000E+00  0.00000000E+00
  0.00000000E+00  0.00000000E+00  0.00000000E+00
  0.00000000E+00  0.00000000E+00  0.00000000E+00
  0.00000000E+00  0.00000000E+00  0.00000000E+00
  0.00000000E+00  0.00000000E+00  0.00000000E+00
  0.00000000E+00  0.00000000E+00  0.00000000E+00
  0.00000000E+00  0.00000000E+00  0.00000000E+00
  0.00000000E+00  0.00000000E+00  0.00000000E+00
  0.00000000E+00  0.00000000E+00  0.00000000E+00
  0.00000000E+00  0.00000000E+00  0.00000000E+00
  0.00000000E+00  0.00000000E+00  0.00000000E+00
  0.00000000E+00  0.00000000E+00  0.00000000E+00
  0.00000000E+00  0.00000000E+00  0.00000000E+00
  0.00000000E+00  0.00000000E+00  0.00000000E+00
  0.00000000E+00  0.00000000E+00  0.00000000E+00
  0.00000000E+00  0.00000000E+00  0.00000000E+00
  0.00000000E+00  0.00000000E+00  0.00000000E+00
  0.00000000E+00  0.00000000E+00  0.00000000E+00
  0.00000000E+00  0.00000000E+00  0.00000000E+00
  0.00000000E+00  0.00000000E+00  0.00000000E+00
  0.00000000E+00  0.00000000E+00  0.00000000E+00
  0.00000000E+00  0.00000000E+00  0.00000000E+00
  0.00000000E+00  0.00000000E+00  0.00000000E+00
  0.00000000E+00  0.00000000E+00  0.00000000E+00
  0.00000000E+00  0.00000000E+00  0.00000000E+00
  0.00000000E+00  0.00000000E+00  0.00000000E+00
  0.00000000E+00  0.00000000E+00  0.00000000E+00
  0.00000000E+00  0.00000000E+00  0.00000000E+00
  0.00000000E+00  0.00000000E+00  0.00000000E+00
  0.00000000E+00  0.00000000E+00  0.00000000E+00
  0.00000000E+00  0.00000000E+00  0.00000000E+00
  0.00000000E+00  0.00000000E+00  0.00000000E+00
  0.00000000E+00  0.00000000E+00  0.00000000E+00
  0.00000000E+00  0.00000000E+00  0.00000000E+00
  0.00000000E+00  0.00000000E+00  0.00000000E+00
  0.00000000E+00  0.00000000E+00  0.00000000E+00
  0.00000000E+00  0.00000000E+00  0.00000000E+00
  0.00000000E+00  0.00000000E+00  0.00000000E+00
  0.00000000E+00  0.00000000E+00  0.00000000E+00
  0.00000000E+00  0.00000000E+00  0.00000000E+00
  0.00000000E+00  0.00000000E+00  0.00000000E+00
  0.00000000E+00  0.00000000E+00  0.00000000E+00
  0.00000000E+00  0.00000000E+00  0.00000000E+00
  0.00000000E+00  0.00000000E+00  0.00000000E+00
  0.00000000E+00  0.00000000E+00  0.00000000E+00
  0.00000000E+00  0.00000000E+00  0.00000000E+00
  0.00000000E+00  0.00000000E+00  0.00000000E+00
  0.00000000E+00  0.00000000E+00  0.00000000E+00
  0.00000000E+00  0.00000000E+00  0.00000000E+00
  0.00000000E+00  0.00000000E+00  0.00000000E+00
  0.00000000E+00  0.00000000E+00  0.00000000E+00
  0.00000000E+00  0.00000000E+00  0.00000000E+00
  0.00000000E+00  0.00000000E+00  0.00000000E+00
  0.00000000E+00  0.00000000E+00  0.00000000E+00
  0.00000000E+00  0.00000000E+00  0.00000000E+00
  0.00000000E+00  0.00000000E+00  0.00000000E+00
  0.00000000E+00  0.00000000E+00  0.00000000E+00
  0.00000000E+00  0.00000000E+00  0.00000000E+00
  0.00000000E+00  0.00000000E+00  0.00000000E+00
  0.00000000E+00  0.00000000E+00  0.00000000E+00
  0.00000000E+00  0.00000000E+00  0.00000000E+00
  0.00000000E+00  0.00000000E+00  0.00000000E+00
  0.00000000E+00  0.00000000E+00  0.00000000E+00
  0.00000000E+00  0.00000000E+00  0.00000000E+00
  0.00000000E+00  0.00000000E+00  0.00000000E+00
  0.00000000E+00  0.00000000E+00  0.00000000E+00
  0.00000000E+00  0.00000000E+00  0.00000000E+00
  0.00000000E+00  0.00000000E+00  0.00000000E+00
  0.00000000E+00  0.00000000E+00  0.00000000E+00
  0.00000000E+00  0.00000000E+00  0.00000000E+00
  0.00000000E+00  0.00000000E+00  0.00000000E+00
  0.00000000E+00  0.00000000E+00  0.00000000E+00
  0.00000000E+00  0.00000000E+00  0.00000000E+00
  0.00000000E+00  0.00000000E+00  0.00000000E+00
  0.00000000E+00  0.00000000E+00  0.00000000E+00
  0.00000000E+00  0.00000000E+00  0.00000000E+00
  0.00000000E+00  0.00000000E+00  0.00000000E+00
  0.00000000E+00  0.00000000E+00  0.00000000E+00
  0.00000000E+00  0.00000000E+00  0.00000000E+00
  0.00000000E+00  0.00000000E+00  0.00000000E+00
  0.00000000E+00  0.00000000E+00  0.00000000E+00
  0.00000000E+00  0.00000000E+00  0.00000000E+00
  0.00000000E+00  0.00000000E+00  0.00000000E+00
  0.00000000E+00  0.00000000E+00  0.00000000E+00
  0.00000000E+00  0.00000000E+00  0.00000000E+00
  0.00000000E+00  0.00000000E+00  0.00000000E+00
  0.00000000E+00  0.00000000E+00  0.00000000E+00
  0.00000000E+00  0.00000000E+00  0.00000000E+00
  0.00000000E+00  0.00000000E+00  0.00000000E+00
  0.00000000E+00  0.00000000E+00  0.00000000E+00
  0.00000000E+00  0.00000000E+00  0.00000000E+00
  0.00000000E+00  0.00000000E+00  0.00000000E+00
  0.00000000E+00  0.00000000E+00  0.00000000E+00
  0.00000000E+00  0.00000000E+00  0.00000000E+00
  0.00000000E+00  0.00000000E+00  0.00000000E+00
  0.00000000E+00  0.00000000E+00  0.00000000E+00
  0.00000000E+00  0.00000000E+00  0.00000000E+00
  0.00000000E+00  0.00000000E+00  0.00000000E+00
  0.00000000E+00  0.00000000E+00  0.00000000E+00
  0.00000000E+00  0.00000000E+00  0.00000000E+00
  0.00000000E+00  0.00000000E+00  0.00000000E+00
  0.00000000E+00  0.00000000E+00  0.00000000E+00
  0.00000000E+00  0.00000000E+00  0.00000000E+00
  0.00000000E+00  0.00000000E+00  0.00000000E+00
  0.00000000E+00  0.00000000E+00  0.00000000E+00
  0.00000000E+00  0.00000000E+00  0.00000000E+00
  0.00000000E+00  0.00000000E+00  0.00000000E+00
  0.00000000E+00  0.00000000E+00  0.00000000E+00
  0.00000000E+00  0.00000000E+00  0.00000000E+00
  0.00000000E+00  0.00000000E+00  0.00000000E+00
  0.00000000E+00  0.00000000E+00  0.00000000E+00
  0.00000000E+00  0.00000000E+00  0.00000000E+00
  0.00000000E+00  0.00000000E+00  0.00000000E+00
  0.00000000E+00  0.00000000E+00  0.00000000E+00
  0.00000000E+00  0.00000000E+00  0.00000000E+00
  0.00000000E+00  0.00000000E+00  0.00000000E+00
  0.00000000E+00  0.00000000E+00  0.00000000E+00
  0.00000000E+00  0.00000000E+00  0.00000000E+00
  0.00000000E+00  0.00000000E+00  0.00000000E+00
  0.00000000E+00  0.00000000E+00  0.00000000E+00
  0.00000000E+00  0.00000000E+00  0.00000000E+00
  0.00000000E+00  0.00000000E+00  0.00000000E+00
  0.00000000E+00  0.00000000E+00  0.00000000E+00
  0.00000000E+00  0.00000000E+00  0.00000000E+00
  0.00000000E+00  0.00000000E+00  0.00000000E+00
  0.00000000E+00  0.00000000E+00  0.00000000E+00
  0.00000000E+00  0.00000000E+00  0.00000000E+00
  0.00000000E+00  0.00000000E+00  0.00000000E+00
  0.00000000E+00  0.00000000E+00  0.00000000E+00
  0.00000000E+00  0.00000000E+00  0.00000000E+00
  0.00000000E+00  0.00000000E+00  0.00000000E+00
  0.00000000E+00  0.00000000E+00  0.00000000E+00
  0.00000000E+00  0.00000000E+00  0.00000000E+00
  0.00000000E+00  0.00000000E+00  0.00000000E+00
  0.00000000E+00  0.00000000E+00  0.00000000E+00
  0.00000000E+00  0.00000000E+00  0.00000000E+00
  0.00000000E+00  0.00000000E+00  0.00000000E+00
  0.00000000E+00  0.00000000E+00  0.00000000E+00
  0.00000000E+00  0.00000000E+00  0.00000000E+00
  0.00000000E+00  0.00000000E+00  0.00000000E+00
  0.00000000E+00  0.00000000E+00  0.00000000E+00
  0.00000000E+00  0.00000000E+00  0.00000000E+00
  0.00000000E+00  0.00000000E+00  0.00000000E+00
  0.00000000E+00  0.00000000E+00  0.00000000E+00
  0.00000000E+00  0.00000000E+00  0.00000000E+00
  0.00000000E+00  0.00000000E+00  0.00000000E+00
  0.00000000E+00  0.00000000E+00  0.00000000E+00
  0.00000000E+00  0.00000000E+00  0.00000000E+00
  0.00000000E+00  0.00000000E+00  0.00000000E+00
  0.00000000E+00  0.00000000E+00  0.00000000E+00
  0.00000000E+00  0.00000000E+00  0.00000000E+00
  0.00000000E+00  0.00000000E+00  0.00000000E+00
  0.00000000E+00  0.00000000E+00  0.00000000E+00
  0.00000000E+00  0.00000000E+00  0.00000000E+00
  0.00000000E+00  0.00000000E+00  0.00000000E+00
  0.00000000E+00  0.00000000E+00  0.00000000E+00
  0.00000000E+00  0.00000000E+00  0.00000000E+00
  0.00000000E+00  0.00000000E+00  0.00000000E+00
  0.00000000E+00  0.00000000E+00  0.00000000E+00
  0.00000000E+00  0.00000000E+00  0.00000000E+00
  0.00000000E+00  0.00000000E+00  0.00000000E+00
  0.00000000E+00  0.00000000E+00  0.00000000E+00
  0.00000000E+00  0.00000000E+00  0.00000000E+00